bareHfO2\(1\1\0)                        
   1.00000000000000     
     5.0493001937999997    0.0000000000000000    0.0000000000000000
     0.0000000000000000    7.1406998634000001    0.0000000000000000
     0.0000000000000000    0.0000000000000000   20.3556003570999984
   Hf   O 
     8    16
Direct
  0.9583299999999966  0.5000000000000000  0.0980745220745918
  0.9583299999999966  0.0000000000000000  0.2758170515824643
  0.4583299999999966  0.7500000000000000  0.0364029484175393
  0.4583299999999966  0.2500000000000000  0.2141454779254046
  0.4583299999999966  0.2500000000000000  0.0364029484175393
  0.4583299999999966  0.7500000000000000  0.2141454779254046
  0.9583299999999966  0.0000000000000000  0.0980745220745918
  0.9583299999999966  0.5000000000000000  0.2758170515824643
  0.6982038581409314 -0.0000000000000000  0.0205918663288342
  0.7033463187355472  0.5000000000000000  0.2003091565495376
  0.7133136812644459  0.7500000000000000  0.1119108434504588
  0.7184561418590617  0.2500000000000000  0.2916281336711692
  0.2033463187355471  0.7500000000000000  0.1119108434504588
  0.1982038581409314  0.2500000000000000  0.2916281336711692
  0.2184561418590617  0.0000000000000000  0.0205918663288342
  0.2133136812644460  0.5000000000000000  0.2003091565495376
  0.2033463187355471  0.2500000000000000  0.1119108434504588
  0.1982038581409314  0.7500000000000000  0.2916281336711692
  0.2184561418590617  0.5000000000000000  0.0205918663288342
  0.2133136812644460  0.0000000000000000  0.2003091565495376
  0.6982038581409314  0.5000000000000000  0.0205918663288342
  0.7033463187355472 -0.0000000000000000  0.2003091565495376
  0.7133136812644459  0.2500000000000000  0.1119108434504588
  0.7184561418590617  0.7500000000000000  0.2916281336711692
 
  0.00000000E+00  0.00000000E+00  0.00000000E+00
  0.00000000E+00  0.00000000E+00  0.00000000E+00
  0.00000000E+00  0.00000000E+00  0.00000000E+00
  0.00000000E+00  0.00000000E+00  0.00000000E+00
  0.00000000E+00  0.00000000E+00  0.00000000E+00
  0.00000000E+00  0.00000000E+00  0.00000000E+00
  0.00000000E+00  0.00000000E+00  0.00000000E+00
  0.00000000E+00  0.00000000E+00  0.00000000E+00
  0.00000000E+00  0.00000000E+00  0.00000000E+00
  0.00000000E+00  0.00000000E+00  0.00000000E+00
  0.00000000E+00  0.00000000E+00  0.00000000E+00
  0.00000000E+00  0.00000000E+00  0.00000000E+00
  0.00000000E+00  0.00000000E+00  0.00000000E+00
  0.00000000E+00  0.00000000E+00  0.00000000E+00
  0.00000000E+00  0.00000000E+00  0.00000000E+00
  0.00000000E+00  0.00000000E+00  0.00000000E+00
  0.00000000E+00  0.00000000E+00  0.00000000E+00
  0.00000000E+00  0.00000000E+00  0.00000000E+00
  0.00000000E+00  0.00000000E+00  0.00000000E+00
  0.00000000E+00  0.00000000E+00  0.00000000E+00
  0.00000000E+00  0.00000000E+00  0.00000000E+00
  0.00000000E+00  0.00000000E+00  0.00000000E+00
  0.00000000E+00  0.00000000E+00  0.00000000E+00
  0.00000000E+00  0.00000000E+00  0.00000000E+00
