bareHfO2\(1\1\0)
1.0
        5.0493001938         0.0000000000         0.0000000000
        0.0000000000         7.1406998634         0.0000000000
        0.0000000000         0.0000000000        20.3556003571
   Hf    O
    8   16
Direct
     0.958330000         0.500000000         0.112260000
     0.958330000         0.000000000         0.287660000
     0.458330000         0.750000000         0.024560000
     0.458330000         0.250000000         0.199960000
     0.458330000         0.250000000         0.024560000
     0.458330000         0.750000000         0.199960000
     0.958330000         0.000000000         0.112260000
     0.958330000         0.500000000         0.287660000
     0.708330000         0.000000000         0.024560000
     0.708330000         0.500000000         0.199960000
     0.708330000         0.750000000         0.112260000
     0.708330000         0.250000000         0.287660000
     0.208330000         0.750000000         0.112260000
     0.208330000         0.250000000         0.287660000
     0.208330000         0.000000000         0.024560000
     0.208330000         0.500000000         0.199960000
     0.208330000         0.250000000         0.112260000
     0.208330000         0.750000000         0.287660000
     0.208330000         0.500000000         0.024560000
     0.208330000         0.000000000         0.199960000
     0.708330000         0.500000000         0.024560000
     0.708330000         0.000000000         0.199960000
     0.708330000         0.250000000         0.112260000
     0.708330000         0.750000000         0.287660000
