H2O\gas_15                              
   1.00000000000000     
    15.0000000000000000    0.0000000000000000    0.0000000000000000
     0.0000000000000000   15.0000000000000000    0.0000000000000000
     0.0000000000000000    0.0000000000000000   15.0000000000000000
   H    O 
     2     1
Direct
  0.4953790777868363  0.5153075595815402  0.4679266359534275
  0.3929009222131654  0.5153075595815402  0.4679266359534275
  0.4441399999999973  0.5479148808369130  0.4905367280931499
 
  0.00000000E+00  0.00000000E+00  0.00000000E+00
  0.00000000E+00  0.00000000E+00  0.00000000E+00
  0.00000000E+00  0.00000000E+00  0.00000000E+00
