Generated by VASPKIT code               
   1.00000000000000     
     6.1840000152999997    0.0000000000000000    0.0000000000000000
     0.0000000000000000    7.1406998634000001    0.0000000000000000
     0.0000000000000000    0.0000000000000000   25.2031993866000015
   Hf   O    H 
    16    33     2
Selective dynamics
Direct
  0.0203699999999998  0.0305400000000020  0.1443999999999974   F   F   F
  0.0203699999999998  0.5305400000000020  0.1443999999999974   F   F   F
  0.1851475607104831  0.7803667455969574  0.2598833159463680   T   T   T
  0.2027776798967764  0.2803925654870980  0.2582135772397365   T   T   T
  0.3537000000000035  0.5305299999999988  0.0287399999999991   F   F   F
  0.3486605858786760  0.5231019626383500  0.3737175542110336   T   T   T
  0.3537000000000035  0.0305299999999988  0.0287399999999991   F   F   F
  0.3481828657139374  0.0382419397501081  0.3738524648801729   T   T   T
  0.5203699999999998  0.2805400000000020  0.1443999999999974   F   F   F
  0.5203699999999998  0.7805400000000020  0.1443999999999974   F   F   F
  0.6889286166811601  0.0230802247245521  0.2620039105598408   T   T   T
  0.6892536316273876  0.5378828104451756  0.2622630518641813   T   T   T
  0.8537000000000035  0.7805299999999988  0.0287399999999991   F   F   F
  0.8852079877507890  0.7813951667366439  0.3855624473261798   T   T   T
  0.8537000000000035  0.2805299999999988  0.0287399999999991   F   F   F
  0.8558065122363701  0.2812464411412421  0.3774502315475274   T   T   T
  0.0239729213356128  0.5179613026513437  0.2332006628985681   T   T   T
  0.0240920955108521  0.0429492572961081  0.2330479880474954   T   T   T
  0.0203699999999998  0.5305400000000020  0.0576500000000024   F   F   F
  0.0331053277390581  0.5066639037574276  0.4073951321108780   T   T   T
  0.0203699999999998  0.0305400000000020  0.0576500000000024   F   F   F
  0.0315719479983088  0.0535365874315730  0.4065076657423390   T   T   T
  0.1870400000000032  0.2805299999999988  0.1733199999999968   F   F   F
  0.1870400000000032  0.7805299999999988  0.1733199999999968   F   F   F
  0.1868260050462140  0.2805521963436206  0.9970017833922142   T   T   T
  0.1862398668475009  0.2812433740775049  0.3416694068488013   T   T   T
  0.1868291481388056  0.7805349142215263  0.9970158214380831   T   T   T
  0.1790639644148726  0.7792316916102493  0.3447978134895138   T   T   T
  0.3537000000000035  0.0305299999999988  0.1154900000000012   F   F   F
  0.3537000000000035  0.5305299999999988  0.1154900000000012   F   F   F
  0.3618833787346247  0.0279061389952844  0.2903938342128640   T   T   T
  0.3626047379824797  0.5330050997845532  0.2901832858952389   T   T   T
  0.5203699999999998  0.7805400000000020  0.0576500000000024   F   F   F
  0.3993199988558800  0.7806092802654376  0.4228515915648572   T   T   T
  0.5203699999999998  0.2805400000000020  0.0576500000000024   F   F   F
  0.5203841597484384  0.2804816587244190  0.4033088818096999   T   T   T
  0.5143034534522286  0.7806463617095858  0.2305906222583332   T   T   T
  0.5178743294039521  0.2802627373319879  0.2300989290024020   T   T   T
  0.6872267616605541  0.5306014551064919  0.9970095062986530   T   T   T
  0.6816220079807138  0.5709290121114847  0.3526482450991040   T   T   T
  0.6872191705519128  0.0304857900565381  0.9970093699184659   T   T   T
  0.6795124789798663  0.9882026725246504  0.3531725701961648   T   T   T
  0.6870400000000032  0.5305299999999988  0.1733199999999968   F   F   F
  0.6870400000000032  0.0305299999999988  0.1733199999999968   F   F   F
  0.8151519326546506  0.2797293106402492  0.2968699755924007   T   T   T
  0.8573462560017546  0.7808694868279105  0.2815431478840935   T   T   T
  0.8537000000000035  0.2805299999999988  0.1154900000000012   F   F   F
  0.8537000000000035  0.7805299999999988  0.1154900000000012   F   F   F
  0.7857359965226252  0.7737861787618669  0.4610436076531101   T   T   T
  0.5181566248611915  0.7777542758735265  0.4496131930324196   T   T   T
  0.8650318833128026  0.7137688613616149  0.4894717541203093   T   T   T
 
  0.00000000E+00  0.00000000E+00  0.00000000E+00
  0.00000000E+00  0.00000000E+00  0.00000000E+00
  0.00000000E+00  0.00000000E+00  0.00000000E+00
  0.00000000E+00  0.00000000E+00  0.00000000E+00
  0.00000000E+00  0.00000000E+00  0.00000000E+00
  0.00000000E+00  0.00000000E+00  0.00000000E+00
  0.00000000E+00  0.00000000E+00  0.00000000E+00
  0.00000000E+00  0.00000000E+00  0.00000000E+00
  0.00000000E+00  0.00000000E+00  0.00000000E+00
  0.00000000E+00  0.00000000E+00  0.00000000E+00
  0.00000000E+00  0.00000000E+00  0.00000000E+00
  0.00000000E+00  0.00000000E+00  0.00000000E+00
  0.00000000E+00  0.00000000E+00  0.00000000E+00
  0.00000000E+00  0.00000000E+00  0.00000000E+00
  0.00000000E+00  0.00000000E+00  0.00000000E+00
  0.00000000E+00  0.00000000E+00  0.00000000E+00
  0.00000000E+00  0.00000000E+00  0.00000000E+00
  0.00000000E+00  0.00000000E+00  0.00000000E+00
  0.00000000E+00  0.00000000E+00  0.00000000E+00
  0.00000000E+00  0.00000000E+00  0.00000000E+00
  0.00000000E+00  0.00000000E+00  0.00000000E+00
  0.00000000E+00  0.00000000E+00  0.00000000E+00
  0.00000000E+00  0.00000000E+00  0.00000000E+00
  0.00000000E+00  0.00000000E+00  0.00000000E+00
  0.00000000E+00  0.00000000E+00  0.00000000E+00
  0.00000000E+00  0.00000000E+00  0.00000000E+00
  0.00000000E+00  0.00000000E+00  0.00000000E+00
  0.00000000E+00  0.00000000E+00  0.00000000E+00
  0.00000000E+00  0.00000000E+00  0.00000000E+00
  0.00000000E+00  0.00000000E+00  0.00000000E+00
  0.00000000E+00  0.00000000E+00  0.00000000E+00
  0.00000000E+00  0.00000000E+00  0.00000000E+00
  0.00000000E+00  0.00000000E+00  0.00000000E+00
  0.00000000E+00  0.00000000E+00  0.00000000E+00
  0.00000000E+00  0.00000000E+00  0.00000000E+00
  0.00000000E+00  0.00000000E+00  0.00000000E+00
  0.00000000E+00  0.00000000E+00  0.00000000E+00
  0.00000000E+00  0.00000000E+00  0.00000000E+00
  0.00000000E+00  0.00000000E+00  0.00000000E+00
  0.00000000E+00  0.00000000E+00  0.00000000E+00
  0.00000000E+00  0.00000000E+00  0.00000000E+00
  0.00000000E+00  0.00000000E+00  0.00000000E+00
  0.00000000E+00  0.00000000E+00  0.00000000E+00
  0.00000000E+00  0.00000000E+00  0.00000000E+00
  0.00000000E+00  0.00000000E+00  0.00000000E+00
  0.00000000E+00  0.00000000E+00  0.00000000E+00
  0.00000000E+00  0.00000000E+00  0.00000000E+00
  0.00000000E+00  0.00000000E+00  0.00000000E+00
  0.00000000E+00  0.00000000E+00  0.00000000E+00
  0.00000000E+00  0.00000000E+00  0.00000000E+00
  0.00000000E+00  0.00000000E+00  0.00000000E+00
