bareHfO2\(1\0\0)                        
   1.00000000000000     
     5.0493001937999997    0.0000000000000000    0.0000000000000000
     0.0000000000000000    5.0493001937999997    0.0000000000000000
     0.0000000000000000    0.0000000000000000   23.8362007140999985
   Hf   O 
     8    16
Direct
  0.9997200000000035  0.7413099999999986  0.1704873412933312
  0.9997200000000035  0.7413099999999986  0.3857183376617480
  0.4997200000000035  0.2413099999999986  0.1704873412933312
  0.4997200000000035  0.2413099999999986  0.3857183376617480
  0.9997200000000035  0.2413099999999986  0.0605537696911877
  0.9997200000000035  0.2413099999999986  0.2794607883796065
  0.4997200000000035  0.7413099999999986  0.0605537696911877
  0.4997200000000035  0.7413099999999986  0.2794607883796065
  0.2497200000000035  0.4913099999999986  0.0206731133676211
  0.2497200000000035  0.4913099999999986  0.2383701085731274
  0.7497200000000035  0.4913099999999986  0.0206731133676211
  0.7497200000000035  0.4913099999999986  0.2383701085731274
  0.7497200000000035  0.9913099999999986  0.0206731133676211
  0.7497200000000035  0.9913099999999986  0.2383701085731274
  0.2497200000000035  0.9913099999999986  0.0206731133676211
  0.2497200000000035  0.9913099999999986  0.2383701085731274
  0.2497200000000035  0.9913099999999986  0.1293786704135869
  0.2497200000000035  0.9913099999999986  0.3474079891327346
  0.7497200000000035  0.9913099999999986  0.1293786704135869
  0.7497200000000035  0.9913099999999986  0.3474079891327346
  0.7497200000000035  0.4913099999999986  0.1293786704135869
  0.7497200000000035  0.4913099999999986  0.3474079891327346
  0.2497200000000035  0.4913099999999986  0.1293786704135869
  0.2497200000000035  0.4913099999999986  0.3474079891327346
 
  0.00000000E+00  0.00000000E+00  0.00000000E+00
  0.00000000E+00  0.00000000E+00  0.00000000E+00
  0.00000000E+00  0.00000000E+00  0.00000000E+00
  0.00000000E+00  0.00000000E+00  0.00000000E+00
  0.00000000E+00  0.00000000E+00  0.00000000E+00
  0.00000000E+00  0.00000000E+00  0.00000000E+00
  0.00000000E+00  0.00000000E+00  0.00000000E+00
  0.00000000E+00  0.00000000E+00  0.00000000E+00
  0.00000000E+00  0.00000000E+00  0.00000000E+00
  0.00000000E+00  0.00000000E+00  0.00000000E+00
  0.00000000E+00  0.00000000E+00  0.00000000E+00
  0.00000000E+00  0.00000000E+00  0.00000000E+00
  0.00000000E+00  0.00000000E+00  0.00000000E+00
  0.00000000E+00  0.00000000E+00  0.00000000E+00
  0.00000000E+00  0.00000000E+00  0.00000000E+00
  0.00000000E+00  0.00000000E+00  0.00000000E+00
  0.00000000E+00  0.00000000E+00  0.00000000E+00
  0.00000000E+00  0.00000000E+00  0.00000000E+00
  0.00000000E+00  0.00000000E+00  0.00000000E+00
  0.00000000E+00  0.00000000E+00  0.00000000E+00
  0.00000000E+00  0.00000000E+00  0.00000000E+00
  0.00000000E+00  0.00000000E+00  0.00000000E+00
  0.00000000E+00  0.00000000E+00  0.00000000E+00
  0.00000000E+00  0.00000000E+00  0.00000000E+00
