bareHfO2\(1\0\0)
1.0
        5.0493001938         0.0000000000         0.0000000000
        0.0000000000         5.0493001938         0.0000000000
        0.0000000000         0.0000000000        23.8362007141
   Hf    O
    8   16
Direct
     0.999720000         0.741310000         0.179670000
     0.999720000         0.741310000         0.391500000
     0.499720000         0.241310000         0.179670000
     0.499720000         0.241310000         0.391500000
     0.999720000         0.241310000         0.073760000
     0.999720000         0.241310000         0.285590000
     0.499720000         0.741310000         0.073760000
     0.499720000         0.741310000         0.285590000
     0.249720000         0.491310000         0.020800000
     0.249720000         0.491310000         0.232630000
     0.749720000         0.491310000         0.020800000
     0.749720000         0.491310000         0.232630000
     0.749720000         0.991310000         0.020800000
     0.749720000         0.991310000         0.232630000
     0.249720000         0.991310000         0.020800000
     0.249720000         0.991310000         0.232630000
     0.249720000         0.991310000         0.126710000
     0.249720000         0.991310000         0.338540000
     0.749720000         0.991310000         0.126710000
     0.749720000         0.991310000         0.338540000
     0.749720000         0.491310000         0.126710000
     0.749720000         0.491310000         0.338540000
     0.249720000         0.491310000         0.126710000
     0.249720000         0.491310000         0.338540000
