Generated by VASPKIT code               
   1.00000000000000     
     7.1406998634000001    0.0000000000000000    0.0000000000000000
     0.0000000000000000    6.1841001511000000    0.0000000000000000
     0.0000000000000000    0.0000000000000000   20.8304004668999987
   Hf   O    H 
     8    18     4
Selective dynamics
Direct
  0.7517399999999981  0.1713499999999968  0.0730000000000004   F   F   F
  0.2517399999999981  0.1713499999999968  0.0730000000000004   F   F   F
  0.5065705239361564  0.3567528166237049  0.2090561181700731   T   T   T
  0.0311572241257458  0.3064952704972173  0.2124001669567974   T   T   T
  0.0017399999999981  0.6713499999999968  0.0730000000000004   F   F   F
  0.5017399999999981  0.6713499999999968  0.0730000000000004   F   F   F
  0.7469623122736319  0.8568280471867161  0.2090765980810701   T   T   T
  0.2223123691842497  0.8065062621737733  0.2123780468734709   T   T   T
  0.5768369269457636  0.0776761148403824  0.2653134235544095   T   T   T
  0.0017500000000013  0.0046899999999965  0.0380099999999999   F   F   F
 -0.0068990986682274 -0.0113752599091601  0.2420547552592743   T   T   T
  0.5017500000000013  0.0046899999999965  0.0380099999999999   F   F   F
  0.7541625612911081  0.1924794502693672  0.1736511796173835   T   T   T
  0.2729056149372928  0.1464575701128722  0.1794065608614978   T   T   T
  0.0017399999999981  0.3380300000000034  0.1079900000000009   F   F   F
  0.5017399999999981  0.3380300000000034  0.1079900000000009   F   F   F
  0.9438639615201775  0.3675414736602641  0.3050175751640995   T   T   T
  0.6764538633460803  0.5776403203772708  0.2653832484427076   T   T   T
  0.2517500000000013  0.5046899999999965  0.0380099999999999   F   F   F
  0.2605490079120124  0.4885779575884208  0.2419387677089686   T   T   T
  0.7517500000000013  0.5046899999999965  0.0380099999999999   F   F   F
 -0.0195012033878300  0.6465062249009755  0.1794297816196496   T   T   T
  0.4994711580242536  0.6925802165107956  0.1736483302309228   T   T   T
  0.2517399999999981  0.8380300000000034  0.1079900000000009   F   F   F
  0.7517399999999981  0.8380300000000034  0.1079900000000009   F   F   F
  0.3100623407762182  0.8666581881551565  0.3050344810115622   T   T   T
 -0.0814562457625103  0.2418272036174140  0.3315253869283518   T   T   T
  0.3384065451361442  0.7401024650154288  0.3308399197256990   T   T   T
  0.7777968844783598  0.5006904143142075  0.2929508208187090   T   T   T
  0.4753557884656972  0.0005616033790636  0.2928427569682909   T   T   T
 
  0.00000000E+00  0.00000000E+00  0.00000000E+00
  0.00000000E+00  0.00000000E+00  0.00000000E+00
  0.00000000E+00  0.00000000E+00  0.00000000E+00
  0.00000000E+00  0.00000000E+00  0.00000000E+00
  0.00000000E+00  0.00000000E+00  0.00000000E+00
  0.00000000E+00  0.00000000E+00  0.00000000E+00
  0.00000000E+00  0.00000000E+00  0.00000000E+00
  0.00000000E+00  0.00000000E+00  0.00000000E+00
  0.00000000E+00  0.00000000E+00  0.00000000E+00
  0.00000000E+00  0.00000000E+00  0.00000000E+00
  0.00000000E+00  0.00000000E+00  0.00000000E+00
  0.00000000E+00  0.00000000E+00  0.00000000E+00
  0.00000000E+00  0.00000000E+00  0.00000000E+00
  0.00000000E+00  0.00000000E+00  0.00000000E+00
  0.00000000E+00  0.00000000E+00  0.00000000E+00
  0.00000000E+00  0.00000000E+00  0.00000000E+00
  0.00000000E+00  0.00000000E+00  0.00000000E+00
  0.00000000E+00  0.00000000E+00  0.00000000E+00
  0.00000000E+00  0.00000000E+00  0.00000000E+00
  0.00000000E+00  0.00000000E+00  0.00000000E+00
  0.00000000E+00  0.00000000E+00  0.00000000E+00
  0.00000000E+00  0.00000000E+00  0.00000000E+00
  0.00000000E+00  0.00000000E+00  0.00000000E+00
  0.00000000E+00  0.00000000E+00  0.00000000E+00
  0.00000000E+00  0.00000000E+00  0.00000000E+00
  0.00000000E+00  0.00000000E+00  0.00000000E+00
  0.00000000E+00  0.00000000E+00  0.00000000E+00
  0.00000000E+00  0.00000000E+00  0.00000000E+00
  0.00000000E+00  0.00000000E+00  0.00000000E+00
  0.00000000E+00  0.00000000E+00  0.00000000E+00
