Generated by VASPKIT code               
   1.00000000000000     
     6.1840000152999997    0.0000000000000000    0.0000000000000000
     0.0000000000000000    7.1406998634000001    0.0000000000000000
     0.0000000000000000    0.0000000000000000   25.2031993866000015
   Hf   O    H 
    16    34     4
Selective dynamics
Direct
  0.0203599999999966  0.0305400000000020  0.1445799999999977   F   F   F
  0.0203599999999966  0.5305400000000020  0.1445799999999977   F   F   F
  0.1799753228298457  0.7770508432869929  0.2603349625433408   T   T   T
  0.1872026510868195  0.2710538933258237  0.2609671613893105   T   T   T
  0.3536900000000003  0.5305299999999988  0.0289199999999994   F   F   F
  0.3720011433384851  0.5239639903990433  0.3748145927766655   T   T   T
  0.3536900000000003  0.0305299999999988  0.0289199999999994   F   F   F
  0.3192759049512041 -0.0032162577375446  0.3778623947725769   T   T   T
  0.5203599999999966  0.2805400000000020  0.1445799999999977   F   F   F
  0.5203599999999966  0.7805400000000020  0.1445799999999977   F   F   F
  0.6799500744078038  0.0338517668515814  0.2603224789149325   T   T   T
  0.6872092626172299  0.5398136145690601  0.2609755891366178   T   T   T
  0.8536900000000003  0.7805400000000020  0.0289199999999994   F   F   F
  0.8192907735388338  0.8139787958116649  0.3778556001877592   T   T   T
  0.8536900000000003  0.2805299999999988  0.0289199999999994   F   F   F
  0.8720508928105869  0.2867182584694969  0.3748232696316171   T   T   T
  0.0198630977386207  0.5270277230834128  0.2338588619965122   T   T   T
  0.0211070911894922  0.0335256742672312  0.2295418978611284   T   T   T
  0.0203599999999966  0.5305400000000020  0.0578300000000027   F   F   F
  0.0981472061151545  0.4497483230539847  0.4216592133596797   T   T   T
  0.0203599999999966  0.0305400000000020  0.0578300000000027   F   F   F
  0.0025233796484182  0.0420387614394513  0.4018231332488714   T   T   T
  0.1870300000000000  0.2805299999999988  0.1734999999999971   F   F   F
  0.1870300000000000  0.7805400000000020  0.1734999999999971   F   F   F
  0.1870300000000000  0.2805299999999988  0.0000000000000000   F   F   F
  0.2243041085111088  0.2739191934870017  0.3447564781875151   T   T   T
  0.1870300000000000  0.7805400000000020  0.0000000000000000   F   F   F
  0.1498126416639950  0.7526897287318484  0.3523442478526875   T   T   T
  0.3536900000000003  0.0305400000000020  0.1156700000000015   F   F   F
  0.3536900000000003  0.5305299999999988  0.1156700000000015   F   F   F
  0.3449303271009853  0.0085415856022888  0.2888552082219096   T   T   T
  0.3651238352803881  0.5437007218951611  0.2914626175027055   T   T   T
  0.5203599999999966  0.7805400000000020  0.0578300000000027   F   F   F
  0.5024581261071034  0.7685846526414628  0.4017594811408777   T   T   T
  0.5203599999999966  0.2805400000000020  0.0578300000000027   F   F   F
  0.5980935921629841  0.3610669745863626  0.4216794575295124   T   T   T
  0.5210533570399727  0.7773412305263540  0.2295420451491205   T   T   T
  0.5198593239551996  0.2838987184274147  0.2338479624687063   T   T   T
  0.6870300000000000  0.5305299999999988  0.0000000000000000   F   F   F
  0.7244437377129055  0.5367769953616601  0.3447546232946108   T   T   T
  0.6870300000000000  0.0305400000000020  0.0000000000000000   F   F   F
  0.6498244207070506  0.0581659966884206  0.3523816931501551   T   T   T
  0.6870300000000000  0.5305299999999988  0.1734999999999971   F   F   F
  0.6870300000000000  0.0305400000000020  0.1734999999999971   F   F   F
  0.8651129061570546  0.2670454971839198  0.2914596233464233   T   T   T
  0.8448258101865488  0.8023404400214502  0.2888593939677575   T   T   T
  0.8536900000000003  0.2805299999999988  0.1156700000000015   F   F   F
  0.8536900000000003  0.7805400000000020  0.1156700000000015   F   F   F
  0.3836305688399191  0.0895450447935565  0.4532874774505896   T   T   T
  0.8831315345406689  0.7208265093697863  0.4532802878839652   T   T   T
  0.5207406141744824  0.2561237685882536  0.4428794070099185   T   T   T
  0.0206643574431504  0.5547207240211729  0.4428370150869558   T   T   T
  0.2586587966785657  0.1242739420817030  0.4744391978540967   T   T   T
  0.7578055723141907  0.6846384119559552  0.4741157857234805   T   T   T
 
  0.00000000E+00  0.00000000E+00  0.00000000E+00
  0.00000000E+00  0.00000000E+00  0.00000000E+00
  0.00000000E+00  0.00000000E+00  0.00000000E+00
  0.00000000E+00  0.00000000E+00  0.00000000E+00
  0.00000000E+00  0.00000000E+00  0.00000000E+00
  0.00000000E+00  0.00000000E+00  0.00000000E+00
  0.00000000E+00  0.00000000E+00  0.00000000E+00
  0.00000000E+00  0.00000000E+00  0.00000000E+00
  0.00000000E+00  0.00000000E+00  0.00000000E+00
  0.00000000E+00  0.00000000E+00  0.00000000E+00
  0.00000000E+00  0.00000000E+00  0.00000000E+00
  0.00000000E+00  0.00000000E+00  0.00000000E+00
  0.00000000E+00  0.00000000E+00  0.00000000E+00
  0.00000000E+00  0.00000000E+00  0.00000000E+00
  0.00000000E+00  0.00000000E+00  0.00000000E+00
  0.00000000E+00  0.00000000E+00  0.00000000E+00
  0.00000000E+00  0.00000000E+00  0.00000000E+00
  0.00000000E+00  0.00000000E+00  0.00000000E+00
  0.00000000E+00  0.00000000E+00  0.00000000E+00
  0.00000000E+00  0.00000000E+00  0.00000000E+00
  0.00000000E+00  0.00000000E+00  0.00000000E+00
  0.00000000E+00  0.00000000E+00  0.00000000E+00
  0.00000000E+00  0.00000000E+00  0.00000000E+00
  0.00000000E+00  0.00000000E+00  0.00000000E+00
  0.00000000E+00  0.00000000E+00  0.00000000E+00
  0.00000000E+00  0.00000000E+00  0.00000000E+00
  0.00000000E+00  0.00000000E+00  0.00000000E+00
  0.00000000E+00  0.00000000E+00  0.00000000E+00
  0.00000000E+00  0.00000000E+00  0.00000000E+00
  0.00000000E+00  0.00000000E+00  0.00000000E+00
  0.00000000E+00  0.00000000E+00  0.00000000E+00
  0.00000000E+00  0.00000000E+00  0.00000000E+00
  0.00000000E+00  0.00000000E+00  0.00000000E+00
  0.00000000E+00  0.00000000E+00  0.00000000E+00
  0.00000000E+00  0.00000000E+00  0.00000000E+00
  0.00000000E+00  0.00000000E+00  0.00000000E+00
  0.00000000E+00  0.00000000E+00  0.00000000E+00
  0.00000000E+00  0.00000000E+00  0.00000000E+00
  0.00000000E+00  0.00000000E+00  0.00000000E+00
  0.00000000E+00  0.00000000E+00  0.00000000E+00
  0.00000000E+00  0.00000000E+00  0.00000000E+00
  0.00000000E+00  0.00000000E+00  0.00000000E+00
  0.00000000E+00  0.00000000E+00  0.00000000E+00
  0.00000000E+00  0.00000000E+00  0.00000000E+00
  0.00000000E+00  0.00000000E+00  0.00000000E+00
  0.00000000E+00  0.00000000E+00  0.00000000E+00
  0.00000000E+00  0.00000000E+00  0.00000000E+00
  0.00000000E+00  0.00000000E+00  0.00000000E+00
  0.00000000E+00  0.00000000E+00  0.00000000E+00
  0.00000000E+00  0.00000000E+00  0.00000000E+00
  0.00000000E+00  0.00000000E+00  0.00000000E+00
  0.00000000E+00  0.00000000E+00  0.00000000E+00
  0.00000000E+00  0.00000000E+00  0.00000000E+00
  0.00000000E+00  0.00000000E+00  0.00000000E+00
