Generated by VASPKIT code               
   1.00000000000000     
     6.1840000152999997    0.0000000000000000    0.0000000000000000
     0.0000000000000000    7.1406998634000001    0.0000000000000000
     0.0000000000000000    0.0000000000000000   25.2031993866000015
   Hf   O    H 
    16    36     8
Selective dynamics
Direct
  0.0203599999999966  0.0305400000000020  0.1445799999999977   F   F   F
  0.0203599999999966  0.5305400000000020  0.1445799999999977   F   F   F
  0.1957006185900666  0.7813451992570105  0.2593078946437451   T   T   T
  0.1957892936878890  0.2795197515827115  0.2592693118912962   T   T   T
  0.3536900000000003  0.5305299999999988  0.0289199999999994   F   F   F
  0.3624331011343445  0.5304130850256158  0.3815269503935889   T   T   T
  0.3536900000000003  0.0305299999999988  0.0289199999999994   F   F   F
  0.3638142915563705  0.0303353043297257  0.3860314958801190   T   T   T
  0.5203599999999966  0.2805400000000020  0.1445799999999977   F   F   F
  0.5203599999999966  0.7805400000000020  0.1445799999999977   F   F   F
  0.6889917347949742  0.0304012039180679  0.2619079894703493   T   T   T
  0.6922528288331694  0.5304525180105034  0.2615572949350483   T   T   T
  0.8536900000000003  0.7805400000000020  0.0289199999999994   F   F   F
  0.8803072082091498  0.7812633609100205  0.3759854682892076   T   T   T
  0.8536900000000003  0.2805299999999988  0.0289199999999994   F   F   F
  0.8804559287655743  0.2794614628311175  0.3759141016838332   T   T   T
  0.0059724457041005  0.5304674953288079  0.2293581884720197   T   T   T
  0.0047377619220303  0.0303758251162038  0.2292031842187884   T   T   T
  0.0203599999999966  0.5305400000000020  0.0578300000000027   F   F   F
  0.0172221678612743  0.5303607883682534  0.3911374690546556   T   T   T
  0.0203599999999966  0.0305400000000020  0.0578300000000027   F   F   F
  0.0157957092886316  0.0303099788854069  0.3939747079551240   T   T   T
  0.1870300000000000  0.2805299999999988  0.1734999999999971   F   F   F
  0.1870300000000000  0.7805400000000020  0.1734999999999971   F   F   F
  0.1870300000000000  0.2805299999999988  0.0000000000000000   F   F   F
  0.2511508910367026  0.2763567237266094  0.3550441917668079   T   T   T
  0.1870300000000000  0.7805400000000020  0.0000000000000000   F   F   F
  0.2509954297206709  0.7843492044251810  0.3549790588380400   T   T   T
  0.3536900000000003  0.0305400000000020  0.1156700000000015   F   F   F
  0.3536900000000003  0.5305299999999988  0.1156700000000015   F   F   F
  0.3394087710062563  0.0304630936888891  0.2819199727053706   T   T   T
  0.3322183346588181  0.5303929105499491  0.2859824364703001   T   T   T
  0.5203599999999966  0.7805400000000020  0.0578300000000027   F   F   F
  0.5838496062153430  0.7810187213963844  0.4202338873936823   T   T   T
  0.5203599999999966  0.2805400000000020  0.0578300000000027   F   F   F
  0.5844906362104934  0.2790018527147653  0.4202956407203557   T   T   T
  0.5428571073717661  0.7778257649789825  0.2346023557424532   T   T   T
  0.5428901298791978  0.2830580298283260  0.2345938127430947   T   T   T
  0.6870300000000000  0.5305299999999988  0.0000000000000000   F   F   F
  0.6606817850474578  0.5300867306154057  0.3451827537952774   T   T   T
  0.6870300000000000  0.0305400000000020  0.0000000000000000   F   F   F
  0.6573113486137314  0.0301679589219863  0.3458268149799349   T   T   T
  0.6870300000000000  0.5305299999999988  0.1734999999999971   F   F   F
  0.6870300000000000  0.0305400000000020  0.1734999999999971   F   F   F
  0.8871125461598520  0.2784754875806158  0.2950896607587793   T   T   T
  0.8870003256056500  0.7821552257549292  0.2951296113059453   T   T   T
  0.8536900000000003  0.2805299999999988  0.1156700000000015   F   F   F
  0.8536900000000003  0.7805400000000020  0.1156700000000015   F   F   F
  0.9714761249056412  0.7759175610798386  0.4719919921158965   T   T   T
  0.9711608963189328  0.2845664113443384  0.4720069393600943   T   T   T
  0.2964290497460307  0.0302524301987743  0.4682140182180415   T   T   T
  0.2949910701532454  0.5297576401470249  0.4650050277204077   T   T   T
  0.6150419550215852  0.2832392064131232  0.4581326629681834   T   T   T
  0.0793636900064820  0.3889886941657962  0.4744972992066668   T   T   T
  0.0790201432088546  0.6711667900015369  0.4746688393364796   T   T   T
  0.0713145002228856 -0.1154275418952119  0.4762755307346742   T   T   T
  0.6116476949745037  0.7760334622403724  0.4581791341368049   T   T   T
  0.0705707390696630  0.1755725650870392  0.4762566543321705   T   T   T
  0.4068213042151916  0.0309706982719423  0.4955415476570682   T   T   T
  0.4058868457513793  0.5271703491637296  0.4922039534717429   T   T   T
 
  0.00000000E+00  0.00000000E+00  0.00000000E+00
  0.00000000E+00  0.00000000E+00  0.00000000E+00
  0.00000000E+00  0.00000000E+00  0.00000000E+00
  0.00000000E+00  0.00000000E+00  0.00000000E+00
  0.00000000E+00  0.00000000E+00  0.00000000E+00
  0.00000000E+00  0.00000000E+00  0.00000000E+00
  0.00000000E+00  0.00000000E+00  0.00000000E+00
  0.00000000E+00  0.00000000E+00  0.00000000E+00
  0.00000000E+00  0.00000000E+00  0.00000000E+00
  0.00000000E+00  0.00000000E+00  0.00000000E+00
  0.00000000E+00  0.00000000E+00  0.00000000E+00
  0.00000000E+00  0.00000000E+00  0.00000000E+00
  0.00000000E+00  0.00000000E+00  0.00000000E+00
  0.00000000E+00  0.00000000E+00  0.00000000E+00
  0.00000000E+00  0.00000000E+00  0.00000000E+00
  0.00000000E+00  0.00000000E+00  0.00000000E+00
  0.00000000E+00  0.00000000E+00  0.00000000E+00
  0.00000000E+00  0.00000000E+00  0.00000000E+00
  0.00000000E+00  0.00000000E+00  0.00000000E+00
  0.00000000E+00  0.00000000E+00  0.00000000E+00
  0.00000000E+00  0.00000000E+00  0.00000000E+00
  0.00000000E+00  0.00000000E+00  0.00000000E+00
  0.00000000E+00  0.00000000E+00  0.00000000E+00
  0.00000000E+00  0.00000000E+00  0.00000000E+00
  0.00000000E+00  0.00000000E+00  0.00000000E+00
  0.00000000E+00  0.00000000E+00  0.00000000E+00
  0.00000000E+00  0.00000000E+00  0.00000000E+00
  0.00000000E+00  0.00000000E+00  0.00000000E+00
  0.00000000E+00  0.00000000E+00  0.00000000E+00
  0.00000000E+00  0.00000000E+00  0.00000000E+00
  0.00000000E+00  0.00000000E+00  0.00000000E+00
  0.00000000E+00  0.00000000E+00  0.00000000E+00
  0.00000000E+00  0.00000000E+00  0.00000000E+00
  0.00000000E+00  0.00000000E+00  0.00000000E+00
  0.00000000E+00  0.00000000E+00  0.00000000E+00
  0.00000000E+00  0.00000000E+00  0.00000000E+00
  0.00000000E+00  0.00000000E+00  0.00000000E+00
  0.00000000E+00  0.00000000E+00  0.00000000E+00
  0.00000000E+00  0.00000000E+00  0.00000000E+00
  0.00000000E+00  0.00000000E+00  0.00000000E+00
  0.00000000E+00  0.00000000E+00  0.00000000E+00
  0.00000000E+00  0.00000000E+00  0.00000000E+00
  0.00000000E+00  0.00000000E+00  0.00000000E+00
  0.00000000E+00  0.00000000E+00  0.00000000E+00
  0.00000000E+00  0.00000000E+00  0.00000000E+00
  0.00000000E+00  0.00000000E+00  0.00000000E+00
  0.00000000E+00  0.00000000E+00  0.00000000E+00
  0.00000000E+00  0.00000000E+00  0.00000000E+00
  0.00000000E+00  0.00000000E+00  0.00000000E+00
  0.00000000E+00  0.00000000E+00  0.00000000E+00
  0.00000000E+00  0.00000000E+00  0.00000000E+00
  0.00000000E+00  0.00000000E+00  0.00000000E+00
  0.00000000E+00  0.00000000E+00  0.00000000E+00
  0.00000000E+00  0.00000000E+00  0.00000000E+00
  0.00000000E+00  0.00000000E+00  0.00000000E+00
  0.00000000E+00  0.00000000E+00  0.00000000E+00
  0.00000000E+00  0.00000000E+00  0.00000000E+00
  0.00000000E+00  0.00000000E+00  0.00000000E+00
  0.00000000E+00  0.00000000E+00  0.00000000E+00
  0.00000000E+00  0.00000000E+00  0.00000000E+00
