Generated by VASPKIT code               
   1.00000000000000     
     7.1406998634000001    0.0000000000000000    0.0000000000000000
     0.0000000000000000    6.1841001511000000    0.0000000000000000
     0.0000000000000000    0.0000000000000000   20.8304004668999987
   Hf   O    H 
     8    20     8
Selective dynamics
Direct
  0.7517399999999981  0.1713499999999968  0.0730000000000004   F   F   F
  0.2517399999999981  0.1713499999999968  0.0730000000000004   F   F   F
  0.5103957247547418  0.3353720366765406  0.2108918826304760   T   T   T
  0.0108059905114218  0.3349156019319400  0.2107947398741980   T   T   T
  0.0017399999999981  0.6713499999999968  0.0730000000000004   F   F   F
  0.5017399999999981  0.6713499999999968  0.0730000000000004   F   F   F
  0.7564073927449031  0.8484666599623165  0.2103252301114939   T   T   T
  0.2565854703122192  0.8482412580783053  0.2103006701852955   T   T   T
  0.5059367018297969 -0.0044076595800241  0.2315736468313339   T   T   T
  0.0017500000000013  0.0046899999999965  0.0380099999999999   F   F   F
  0.0062381303507200 -0.0047497306171574  0.2316018375542946   T   T   T
  0.5017500000000013  0.0046899999999965  0.0380099999999999   F   F   F
  0.7550659052668571  0.2016603911882270  0.1783010248940039   T   T   T
  0.2550710822456749  0.2011600936343439  0.1781288509417608   T   T   T
  0.0017399999999981  0.3380300000000034  0.1079900000000009   F   F   F
  0.4437410981187774  0.3069641038164457  0.3169166522683937   T   T   T
  0.5017399999999981  0.3380300000000034  0.1079900000000009   F   F   F
  0.7225933399265638  0.5454344347568910  0.2577659702668234   T   T   T
  0.2517500000000013  0.5046899999999965  0.0380099999999999   F   F   F
  0.2247608681933728  0.5440527959620898  0.2574122138838591   T   T   T
  0.7517500000000013  0.5046899999999965  0.0380099999999999   F   F   F
 -0.0040690577141070  0.6516832313645441  0.1736735195818000   T   T   T
  0.4962427534609783  0.6520138493155140  0.1734879198562329   T   T   T
  0.2517399999999981  0.8380300000000034  0.1079900000000009   F   F   F
  0.7690739871227313  0.9368459195571057  0.3237913994656922   T   T   T
  0.7517399999999981  0.8380300000000034  0.1079900000000009   F   F   F
  0.2691196103262162  0.9348952072964462  0.3239034615284843   T   T   T
 -0.0559480768018795  0.3086896784954465  0.3165238636112253   T   T   T
  0.5309694598740365  0.3684216743919027  0.3476189946462392   T   T   T
  0.8369203890373305  0.0817004636341176  0.3268200358548959   T   T   T
  0.3364703435860022  0.0800140844868399  0.3271095996541339   T   T   T
  0.2952286878232387  0.4856692530436307  0.2958575094146697   T   T   T
  0.6402603956499737  0.9649070799954289  0.3370288900288700   T   T   T
  0.1402999352026774  0.9618239845297606  0.3372962037048423   T   T   T
  0.0318312544592614  0.3689892881699430  0.3472317115745824   T   T   T
  0.7943773346413595  0.4870283911943986  0.2958698945507642   T   T   T
 
  0.00000000E+00  0.00000000E+00  0.00000000E+00
  0.00000000E+00  0.00000000E+00  0.00000000E+00
  0.00000000E+00  0.00000000E+00  0.00000000E+00
  0.00000000E+00  0.00000000E+00  0.00000000E+00
  0.00000000E+00  0.00000000E+00  0.00000000E+00
  0.00000000E+00  0.00000000E+00  0.00000000E+00
  0.00000000E+00  0.00000000E+00  0.00000000E+00
  0.00000000E+00  0.00000000E+00  0.00000000E+00
  0.00000000E+00  0.00000000E+00  0.00000000E+00
  0.00000000E+00  0.00000000E+00  0.00000000E+00
  0.00000000E+00  0.00000000E+00  0.00000000E+00
  0.00000000E+00  0.00000000E+00  0.00000000E+00
  0.00000000E+00  0.00000000E+00  0.00000000E+00
  0.00000000E+00  0.00000000E+00  0.00000000E+00
  0.00000000E+00  0.00000000E+00  0.00000000E+00
  0.00000000E+00  0.00000000E+00  0.00000000E+00
  0.00000000E+00  0.00000000E+00  0.00000000E+00
  0.00000000E+00  0.00000000E+00  0.00000000E+00
  0.00000000E+00  0.00000000E+00  0.00000000E+00
  0.00000000E+00  0.00000000E+00  0.00000000E+00
  0.00000000E+00  0.00000000E+00  0.00000000E+00
  0.00000000E+00  0.00000000E+00  0.00000000E+00
  0.00000000E+00  0.00000000E+00  0.00000000E+00
  0.00000000E+00  0.00000000E+00  0.00000000E+00
  0.00000000E+00  0.00000000E+00  0.00000000E+00
  0.00000000E+00  0.00000000E+00  0.00000000E+00
  0.00000000E+00  0.00000000E+00  0.00000000E+00
  0.00000000E+00  0.00000000E+00  0.00000000E+00
  0.00000000E+00  0.00000000E+00  0.00000000E+00
  0.00000000E+00  0.00000000E+00  0.00000000E+00
  0.00000000E+00  0.00000000E+00  0.00000000E+00
  0.00000000E+00  0.00000000E+00  0.00000000E+00
  0.00000000E+00  0.00000000E+00  0.00000000E+00
  0.00000000E+00  0.00000000E+00  0.00000000E+00
  0.00000000E+00  0.00000000E+00  0.00000000E+00
  0.00000000E+00  0.00000000E+00  0.00000000E+00
