Generated by VASPKIT code
 1.000000
    7.1406998634000001    0.0000000000000000    0.0000000000000000
    0.0000000000000000    6.1841001511000000    0.0000000000000000
    0.0000000000000000    0.0000000000000000   20.8304004668999987
   Hf   O    H 
     8    20     8
Selective Dynamics
Direct
    0.7517400000000000    0.1713500000000000    0.0730000000000000    F  F  F    Hf001
    0.2517400000000000    0.1713500000000000    0.0730000000000000    F  F  F    Hf002
    0.5014000000000000    0.3385100000000000    0.2123900000000000    T  T  T    Hf003
    0.0013200000000000    0.3384300000000000    0.2124100000000000    T  T  T    Hf004
    0.0017400000000000    0.6713500000000000    0.0730000000000000    F  F  F    Hf005
    0.5017400000000000    0.6713500000000000    0.0730000000000000    F  F  F    Hf006
    0.7514300000000000    0.8388500000000000    0.2125300000000000    T  T  T    Hf007
    0.2513900000000000    0.8381900000000000    0.2120200000000000    T  T  T    Hf008
    0.5014300000000000    0.0042200000000000    0.2443400000000000    T  T  T     O001
    0.0017500000000000    0.0046900000000000    0.0380100000000000    F  F  F     O002
    0.0017800000000000    0.0050300000000000    0.2441900000000000    T  T  T     O003
    0.5017500000000000    0.0046900000000000    0.0380100000000000    F  F  F     O004
    0.7518100000000000    0.1714400000000000    0.1763900000000000    T  T  T     O005
    0.2520300000000000    0.1716700000000000    0.1763100000000000    T  T  T     O006
    0.0017400000000000    0.3380300000000000    0.1079900000000000    F  F  F     O007
    0.4839500000000000    0.3494600000000000    0.3132000000000000    T  T  T     O008
    0.5017400000000000    0.3380300000000000    0.1079900000000000    F  F  F     O009
    0.7517300000000000    0.5051800000000000    0.2441800000000000    T  T  T     O010
    0.2517500000000000    0.5046900000000000    0.0380100000000000    F  F  F     O011
    0.2520300000000000    0.5049400000000001    0.2445900000000000    T  T  T     O012
    0.7517500000000000    0.5046900000000000    0.0380100000000000    F  F  F     O013
    0.0021900000000000    0.6712100000000000    0.1763100000000000    T  T  T     O014
    0.5016200000000000    0.6713100000000000    0.1762500000000000    T  T  T     O015
    0.2517400000000000    0.8380300000000001    0.1079900000000000    F  F  F     O016
    0.7331800000000001    0.8502999999999999    0.3132100000000000    T  T  T     O017
    0.7517400000000000    0.8380300000000001    0.1079900000000000    F  F  F     O018
    0.2310500000000000    0.8521100000000000    0.3131900000000000    T  T  T     O019
    0.0223200000000000    0.3668800000000000    0.3095900000000000    T  T  T     O020
    0.5742600000000000    0.2927900000000000    0.3437900000000000    T  T  T     H001
    0.8234200000000000    0.7936500000000000    0.3438200000000000    T  T  T     H002
    0.3189300000000000    0.7948900000000000    0.3444800000000000    T  T  T     H003
    0.2624300000000000    0.4979800000000000    0.2916700000000000    T  T  T     H004
    0.5116900000000000    0.9990700000000000    0.2914400000000000    T  T  T     H005
    0.0174600000000000    0.9948000000000000    0.2911700000000000    T  T  T     H006
    0.1126300000000000    0.3102100000000000    0.3401800000000000    T  T  T     H007
    0.7525900000000000    0.4967000000000000    0.2913300000000000    T  T  T     H008
