Generated by VASPKIT code
 1.000000
    6.1840000152999997    0.0000000000000000    0.0000000000000000
    0.0000000000000000    7.1406998634000001    0.0000000000000000
    0.0000000000000000    0.0000000000000000   25.2031993866000015
   Hf   O    H 
    16    36     8
Selective Dynamics
Direct
    0.0203600000000000    0.0305400000000000    0.1445800000000000    F  F  F    Hf001
    0.0203600000000000    0.5305400000000000    0.1445800000000000    F  F  F    Hf002
    0.1870300000000000    0.7805299999999999    0.2609200000000000    T  T  T    Hf003
    0.1870300000000000    0.2805300000000000    0.2609200000000000    T  T  T    Hf004
    0.3536900000000000    0.5305299999999999    0.0289200000000000    F  F  F    Hf005
    0.3537000000000000    0.5305299999999999    0.3750500000000000    T  T  T    Hf006
    0.3536900000000000    0.0305300000000000    0.0289200000000000    F  F  F    Hf007
    0.3537000000000000    0.0305300000000000    0.3750500000000000    T  T  T    Hf008
    0.5203600000000000    0.2805400000000000    0.1445800000000000    F  F  F    Hf009
    0.5203600000000000    0.7805400000000000    0.1445800000000000    F  F  F    Hf010
    0.6870300000000000    0.0305300000000000    0.2609200000000000    T  T  T    Hf011
    0.6870300000000000    0.5305299999999999    0.2609200000000000    T  T  T    Hf012
    0.8536899999999999    0.7805400000000000    0.0289200000000000    F  F  F    Hf013
    0.8537000000000000    0.7805299999999999    0.3750500000000000    T  T  T    Hf014
    0.8536899999999999    0.2805300000000000    0.0289200000000000    F  F  F    Hf015
    0.8537000000000000    0.2805300000000000    0.3750500000000000    T  T  T    Hf016
    0.0203600000000000    0.5305400000000000    0.2319700000000000    T  T  T     O001
    0.0203600000000000    0.0305400000000000    0.2319700000000000    T  T  T     O002
    0.0203600000000000    0.5305400000000000    0.0578300000000000    F  F  F     O003
    0.0203600000000000    0.5305400000000000    0.4066200000000000    T  T  T     O004
    0.0203600000000000    0.0305400000000000    0.0578300000000000    F  F  F     O005
    0.0203600000000000    0.0305400000000000    0.4066200000000000    T  T  T     O006
    0.1870300000000000    0.2805300000000000    0.1735000000000000    F  F  F     O007
    0.1870300000000000    0.7805400000000000    0.1735000000000000    F  F  F     O008
    0.1870300000000000    0.2805300000000000    0.0000000000000000    F  F  F     O009
    0.1870200000000000    0.2805400000000000    0.3459700000000000    T  T  T     O010
    0.1870300000000000    0.7805400000000000    0.0000000000000000    F  F  F     O011
    0.1870200000000000    0.7805400000000000    0.3459700000000000    T  T  T     O012
    0.3536900000000000    0.0305400000000000    0.1156700000000000    F  F  F     O013
    0.3536900000000000    0.5305299999999999    0.1156700000000000    F  F  F     O014
    0.3536900000000000    0.0305400000000000    0.2902500000000000    T  T  T     O015
    0.3536900000000000    0.5305400000000000    0.2902500000000000    T  T  T     O016
    0.5203600000000000    0.7805400000000000    0.0578300000000000    F  F  F     O017
    0.5203600000000000    0.7805400000000000    0.4066200000000000    T  T  T     O018
    0.5203600000000000    0.2805400000000000    0.0578300000000000    F  F  F     O019
    0.5203600000000000    0.2805400000000000    0.4066200000000000    T  T  T     O020
    0.5203600000000000    0.7805400000000000    0.2319700000000000    T  T  T     O021
    0.5203600000000000    0.2805400000000000    0.2319700000000000    T  T  T     O022
    0.6870300000000000    0.5305299999999999    0.0000000000000000    F  F  F     O023
    0.6870200000000000    0.5305400000000000    0.3459700000000000    T  T  T     O024
    0.6870300000000000    0.0305400000000000    0.0000000000000000    F  F  F     O025
    0.6870200000000000    0.0305400000000000    0.3459700000000000    T  T  T     O026
    0.6870300000000000    0.5305299999999999    0.1735000000000000    F  F  F     O027
    0.6870300000000000    0.0305400000000000    0.1735000000000000    F  F  F     O028
    0.8536899999999999    0.2805400000000000    0.2902500000000000    T  T  T     O029
    0.8536899999999999    0.7805400000000000    0.2902500000000000    T  T  T     O030
    0.8536899999999999    0.2805300000000000    0.1156700000000000    F  F  F     O031
    0.8536899999999999    0.7805400000000000    0.1156700000000000    F  F  F     O032
    0.8587100000000000    0.7794100000000000    0.4597300000000000    T  T  T     O033
    0.8587100000000000    0.2850600000000000    0.4596900000000000    T  T  T     O034
    0.3512700000000000    0.0229000000000000    0.4598500000000000    T  T  T     O035
    0.3507800000000000    0.5315299999999999    0.4598900000000000    T  T  T     O036
    0.5234200000000000    0.2823600000000000    0.4456300000000000    T  T  T     H001
    0.0211700000000000    0.5271800000000000    0.4456300000000000    T  T  T     H002
    0.7848100000000000    0.6722800000000000    0.4757200000000000    T  T  T     H003
    0.0211700000000000    0.0305400000000000    0.4456200000000000    T  T  T     H004
    0.5234300000000000    0.7805400000000000    0.4456200000000000    T  T  T     H005
    0.7848100000000000    0.1779300000000000    0.4756800000000000    T  T  T     H006
    0.2773700000000000    0.9157700000000000    0.4758400000000000    T  T  T     H007
    0.2768800000000000    0.4244000000000000    0.4758800000000000    T  T  T     H008
