Generated by VASPKIT code               
   1.00000000000000     
     6.1840271949999996    0.0000000000000000    0.0000000000000000
     0.0000000000000000    7.1406998634000001    0.0000000000000000
     0.0000000000000000    0.0000000000000000   25.2031993866000015
   Hf   O 
    16    32
Selective dynamics
Direct
  0.0203599999999966  0.0305400000000020  0.1445799999999977   F   F   F
  0.0203599999999966  0.5305400000000020  0.1445799999999977   F   F   F
  0.1870291936295043  0.7805306476773467  0.2609147872379092   T   T   T
  0.1870291936295043  0.2805306476773468  0.2609147872379092   T   T   T
  0.3536900000000003  0.5305350000000004  0.0289199999999994   F   F   F
  0.3536990117477357  0.5305271988894477  0.3750522896691508   T   T   T
  0.3536900000000003  0.0305350000000004  0.0289199999999994   F   F   F
  0.3536990117477357  0.0305271988894477  0.3750522896691508   T   T   T
  0.5203599999999966  0.2805400000000020  0.1445799999999977   F   F   F
  0.5203599999999966  0.7805400000000020  0.1445799999999977   F   F   F
  0.6870291936295045  0.0305306476773467  0.2609147872379092   T   T   T
  0.6870291936295045  0.5305306476773467  0.2609147872379092   T   T   T
  0.8536900000000003  0.7805350000000004  0.0289199999999994   F   F   F
  0.8536990117477357  0.7805271988894477  0.3750522896691508   T   T   T
  0.8536900000000003  0.2805350000000004  0.0289199999999994   F   F   F
  0.8536990117477357  0.2805271988894478  0.3750522896691508   T   T   T
  0.0203608525331590  0.5305368738452018  0.2319731877996183   T   T   T
  0.0203608525331590  0.0305368738452017  0.2319731877996183   T   T   T
  0.0203599999999966  0.5305400000000020  0.0578300000000027   F   F   F
  0.0203548570741182  0.5305441539068707  0.4066227023890863   T   T   T
  0.0203599999999966  0.0305400000000020  0.0578300000000027   F   F   F
  0.0203548570741182  0.0305441539068706  0.4066227023890863   T   T   T
  0.1870300000000000  0.2805350000000004  0.1734999999999971   F   F   F
  0.1870300000000000  0.7805350000000004  0.1734999999999971   F   F   F
  0.1870300000000000  0.2805350000000004  0.0000000000000000   F   F   F
  0.1870243886645545  0.2805403900368109  0.3459646306799000   T   T   T
  0.1870300000000000  0.7805350000000004  0.0000000000000000   F   F   F
  0.1870243886645545  0.7805403900368111  0.3459646306799000   T   T   T
  0.3536900000000003  0.0305350000000004  0.1156700000000015   F   F   F
  0.3536900000000003  0.5305350000000004  0.1156700000000015   F   F   F
  0.3536930894669958  0.0305372414205850  0.2902536391329950   T   T   T
  0.3536930894669958  0.5305372414205851  0.2902536391329950   T   T   T
  0.5203599999999966  0.7805400000000020  0.0578300000000027   F   F   F
  0.5203548570741182  0.7805441539068707  0.4066227023890863   T   T   T
  0.5203599999999966  0.2805400000000020  0.0578300000000027   F   F   F
  0.5203548570741182  0.2805441539068705  0.4066227023890863   T   T   T
  0.5203608525331592  0.7805368738452018  0.2319731877996183   T   T   T
  0.5203608525331592  0.2805368738452016  0.2319731877996183   T   T   T
  0.6870300000000000  0.5305350000000004  0.0000000000000000   F   F   F
  0.6870243886645543  0.5305403900368111  0.3459646306799000   T   T   T
  0.6870300000000000  0.0305350000000004  0.0000000000000000   F   F   F
  0.6870243886645543  0.0305403900368110  0.3459646306799000   T   T   T
  0.6870300000000000  0.5305350000000004  0.1734999999999971   F   F   F
  0.6870300000000000  0.0305350000000004  0.1734999999999971   F   F   F
  0.8536930894669961  0.2805372414205849  0.2902536391329950   T   T   T
  0.8536930894669961  0.7805372414205851  0.2902536391329950   T   T   T
  0.8536900000000003  0.2805350000000004  0.1156700000000015   F   F   F
  0.8536900000000003  0.7805350000000004  0.1156700000000015   F   F   F
 
  0.00000000E+00  0.00000000E+00  0.00000000E+00
  0.00000000E+00  0.00000000E+00  0.00000000E+00
  0.00000000E+00  0.00000000E+00  0.00000000E+00
  0.00000000E+00  0.00000000E+00  0.00000000E+00
  0.00000000E+00  0.00000000E+00  0.00000000E+00
  0.00000000E+00  0.00000000E+00  0.00000000E+00
  0.00000000E+00  0.00000000E+00  0.00000000E+00
  0.00000000E+00  0.00000000E+00  0.00000000E+00
  0.00000000E+00  0.00000000E+00  0.00000000E+00
  0.00000000E+00  0.00000000E+00  0.00000000E+00
  0.00000000E+00  0.00000000E+00  0.00000000E+00
  0.00000000E+00  0.00000000E+00  0.00000000E+00
  0.00000000E+00  0.00000000E+00  0.00000000E+00
  0.00000000E+00  0.00000000E+00  0.00000000E+00
  0.00000000E+00  0.00000000E+00  0.00000000E+00
  0.00000000E+00  0.00000000E+00  0.00000000E+00
  0.00000000E+00  0.00000000E+00  0.00000000E+00
  0.00000000E+00  0.00000000E+00  0.00000000E+00
  0.00000000E+00  0.00000000E+00  0.00000000E+00
  0.00000000E+00  0.00000000E+00  0.00000000E+00
  0.00000000E+00  0.00000000E+00  0.00000000E+00
  0.00000000E+00  0.00000000E+00  0.00000000E+00
  0.00000000E+00  0.00000000E+00  0.00000000E+00
  0.00000000E+00  0.00000000E+00  0.00000000E+00
  0.00000000E+00  0.00000000E+00  0.00000000E+00
  0.00000000E+00  0.00000000E+00  0.00000000E+00
  0.00000000E+00  0.00000000E+00  0.00000000E+00
  0.00000000E+00  0.00000000E+00  0.00000000E+00
  0.00000000E+00  0.00000000E+00  0.00000000E+00
  0.00000000E+00  0.00000000E+00  0.00000000E+00
  0.00000000E+00  0.00000000E+00  0.00000000E+00
  0.00000000E+00  0.00000000E+00  0.00000000E+00
  0.00000000E+00  0.00000000E+00  0.00000000E+00
  0.00000000E+00  0.00000000E+00  0.00000000E+00
  0.00000000E+00  0.00000000E+00  0.00000000E+00
  0.00000000E+00  0.00000000E+00  0.00000000E+00
  0.00000000E+00  0.00000000E+00  0.00000000E+00
  0.00000000E+00  0.00000000E+00  0.00000000E+00
  0.00000000E+00  0.00000000E+00  0.00000000E+00
  0.00000000E+00  0.00000000E+00  0.00000000E+00
  0.00000000E+00  0.00000000E+00  0.00000000E+00
  0.00000000E+00  0.00000000E+00  0.00000000E+00
  0.00000000E+00  0.00000000E+00  0.00000000E+00
  0.00000000E+00  0.00000000E+00  0.00000000E+00
  0.00000000E+00  0.00000000E+00  0.00000000E+00
  0.00000000E+00  0.00000000E+00  0.00000000E+00
  0.00000000E+00  0.00000000E+00  0.00000000E+00
  0.00000000E+00  0.00000000E+00  0.00000000E+00
