Generated by VASPKIT code
 1.000000
    6.1840271949999996    0.0000000000000000    0.0000000000000000
    0.0000000000000000    7.1406998634000001    0.0000000000000000
    0.0000000000000000    0.0000000000000000   25.2031993866000015
   Hf   O 
    16    32
Selective Dynamics
Direct
    0.0203600000000000    0.0305400000000000    0.1445800000000000    F  F  F    Hf001
    0.0203600000000000    0.5305400000000000    0.1445800000000000    F  F  F    Hf002
    0.1870300000000000    0.7805350000000000    0.2602500000000000    T  T  T    Hf003
    0.1870300000000000    0.2805350000000000    0.2602500000000000    T  T  T    Hf004
    0.3536900000000000    0.5305350000000000    0.0289200000000000    F  F  F    Hf005
    0.3536900000000000    0.5305350000000000    0.3759200000000000    T  T  T    Hf006
    0.3536900000000000    0.0305350000000000    0.0289200000000000    F  F  F    Hf007
    0.3536900000000000    0.0305350000000000    0.3759200000000000    T  T  T    Hf008
    0.5203600000000000    0.2805400000000000    0.1445800000000000    F  F  F    Hf009
    0.5203600000000000    0.7805400000000000    0.1445800000000000    F  F  F    Hf010
    0.6870300000000000    0.0305350000000000    0.2602500000000000    T  T  T    Hf011
    0.6870300000000000    0.5305350000000000    0.2602500000000000    T  T  T    Hf012
    0.8536899999999999    0.7805350000000000    0.0289200000000000    F  F  F    Hf013
    0.8536899999999999    0.7805350000000000    0.3759200000000000    T  T  T    Hf014
    0.8536899999999999    0.2805350000000000    0.0289200000000000    F  F  F    Hf015
    0.8536899999999999    0.2805350000000000    0.3759200000000000    T  T  T    Hf016
    0.0203600000000000    0.5305400000000000    0.2313400000000000    T  T  T     O001
    0.0203600000000000    0.0305400000000000    0.2313400000000000    T  T  T     O002
    0.0203600000000000    0.5305400000000000    0.0578300000000000    F  F  F     O003
    0.0203600000000000    0.5305400000000000    0.4048400000000000    T  T  T     O004
    0.0203600000000000    0.0305400000000000    0.0578300000000000    F  F  F     O005
    0.0203600000000000    0.0305400000000000    0.4048400000000000    T  T  T     O006
    0.1870300000000000    0.2805350000000000    0.1735000000000000    F  F  F     O007
    0.1870300000000000    0.7805350000000000    0.1735000000000000    F  F  F     O008
    0.1870300000000000    0.2805350000000000    0.0000000000000000    F  F  F     O009
    0.1870300000000000    0.2805350000000000    0.3470000000000000    T  T  T     O010
    0.1870300000000000    0.7805350000000000    0.0000000000000000    F  F  F     O011
    0.1870300000000000    0.7805350000000000    0.3470000000000000    T  T  T     O012
    0.3536900000000000    0.0305350000000000    0.1156700000000000    F  F  F     O013
    0.3536900000000000    0.5305350000000000    0.1156700000000000    F  F  F     O014
    0.3536900000000000    0.0305350000000000    0.2891700000000000    T  T  T     O015
    0.3536900000000000    0.5305350000000000    0.2891700000000000    T  T  T     O016
    0.5203600000000000    0.7805400000000000    0.0578300000000000    F  F  F     O017
    0.5203600000000000    0.7805400000000000    0.4048400000000000    T  T  T     O018
    0.5203600000000000    0.2805400000000000    0.0578300000000000    F  F  F     O019
    0.5203600000000000    0.2805400000000000    0.4048400000000000    T  T  T     O020
    0.5203600000000000    0.7805400000000000    0.2313400000000000    T  T  T     O021
    0.5203600000000000    0.2805400000000000    0.2313400000000000    T  T  T     O022
    0.6870300000000000    0.5305350000000000    0.0000000000000000    F  F  F     O023
    0.6870300000000000    0.5305350000000000    0.3470000000000000    T  T  T     O024
    0.6870300000000000    0.0305350000000000    0.0000000000000000    F  F  F     O025
    0.6870300000000000    0.0305350000000000    0.3470000000000000    T  T  T     O026
    0.6870300000000000    0.5305350000000000    0.1735000000000000    F  F  F     O027
    0.6870300000000000    0.0305350000000000    0.1735000000000000    F  F  F     O028
    0.8536899999999999    0.2805350000000000    0.2891700000000000    T  T  T     O029
    0.8536899999999999    0.7805350000000000    0.2891700000000000    T  T  T     O030
    0.8536899999999999    0.2805350000000000    0.1156700000000000    F  F  F     O031
    0.8536899999999999    0.7805350000000000    0.1156700000000000    F  F  F     O032
