Generated by VASPKIT code               
   1.00000000000000     
     6.1840000152999997    0.0000000000000000    0.0000000000000000
     0.0000000000000000    7.1406998634000001    0.0000000000000000
     0.0000000000000000    0.0000000000000000   25.2031993866000015
   Hf   O    H 
    16    35     6
Selective dynamics
Direct
  0.0203599999999966  0.0305400000000020  0.1445799999999977   F   F   F
  0.0203599999999966  0.5305400000000020  0.1445799999999977   F   F   F
  0.1847102468820623  0.7808734327682956  0.2630764349235051   T   T   T
  0.1966069676468933  0.2797848010452597  0.2621228950097674   T   T   T
  0.3536900000000003  0.5305299999999988  0.0289199999999994   F   F   F
  0.3822571510922543  0.5469503047331017  0.3752723774206501   T   T   T
  0.3536900000000003  0.0305299999999988  0.0289199999999994   F   F   F
  0.3871851067794410  0.0360466725945443  0.3760362575596261   T   T   T
  0.5203599999999966  0.2805400000000020  0.1445799999999977   F   F   F
  0.5203599999999966  0.7805400000000020  0.1445799999999977   F   F   F
  0.6966564301844826  0.0306806918149576  0.2581039639482441   T   T   T
  0.6957597721338473  0.5366437867212639  0.2591545249547451   T   T   T
  0.8536900000000003  0.7805400000000020  0.0289199999999994   F   F   F
  0.8696385924670551  0.7863650348592657  0.3975025552213935   T   T   T
  0.8536900000000003  0.2805299999999988  0.0289199999999994   F   F   F
  0.8540257691629947  0.2967778872595659  0.3783480272485278   T   T   T
  0.0419009737700904  0.5238467716525008  0.2353751840778244   T   T   T
  0.0446788828120290  0.0380318268509328  0.2349592340473876   T   T   T
  0.0203599999999966  0.5305400000000020  0.0578300000000027   F   F   F
  0.0865979927251246  0.5344634235028565  0.4186469576963177   T   T   T
  0.0203599999999966  0.0305400000000020  0.0578300000000027   F   F   F
  0.1372273935309991  0.9768846785281653  0.4294188034615374   T   T   T
  0.1870300000000000  0.2805299999999988  0.1734999999999971   F   F   F
  0.1870300000000000  0.7805400000000020  0.1734999999999971   F   F   F
  0.1870300000000000  0.2805299999999988  0.0000000000000000   F   F   F
  0.1599726632566103  0.2597882816668928  0.3465351377665655   T   T   T
  0.1870300000000000  0.7805400000000020  0.0000000000000000   F   F   F
  0.1614369874284307  0.7744027551266583  0.3456153287045396   T   T   T
  0.3536900000000003  0.0305400000000020  0.1156700000000015   F   F   F
  0.3536900000000003  0.5305299999999988  0.1156700000000015   F   F   F
  0.3941329783461143  0.0270048632451463  0.2954020777155222   T   T   T
  0.3850797466635640  0.5257866559909630  0.2954221867697058   T   T   T
  0.5203599999999966  0.7805400000000020  0.0578300000000027   F   F   F
  0.5136329784220379  0.7846721591517394  0.4032728226166569   T   T   T
  0.5203599999999966  0.2805400000000020  0.0578300000000027   F   F   F
  0.5087902741887120  0.2920025936390971  0.4010295910469566   T   T   T
  0.5020720165476007  0.7781450822756142  0.2295231277174423   T   T   T
  0.5065328888686338  0.2801658271927963  0.2289186708522095   T   T   T
  0.6870300000000000  0.5305299999999988  0.0000000000000000   F   F   F
  0.7394097096140371  0.5518558964430156  0.3549205977866663   T   T   T
  0.6870300000000000  0.0305400000000020  0.0000000000000000   F   F   F
  0.7488732813973371  0.0281690451131453  0.3612385095484072   T   T   T
  0.6870300000000000  0.5305299999999988  0.1734999999999971   F   F   F
  0.6870300000000000  0.0305400000000020  0.1734999999999971   F   F   F
  0.8228368922341716  0.2825431457115783  0.2887471670672781   T   T   T
  0.8435324903939332  0.7847267609892654  0.2778073743586091   T   T   T
  0.8536900000000003  0.2805299999999988  0.1156700000000015   F   F   F
  0.8536900000000003  0.7805400000000020  0.1156700000000015   F   F   F
  0.8254206744750832  0.7702747997409745  0.4751548045499874   T   T   T
  0.8936776474010770  0.2479311537357702  0.4585727111358082   T   T   T
  0.3529782722924892  0.7298289057235365  0.5077719572102168   T   T   T
  0.0715750754938185  0.4993740965243347  0.4560390955386211   T   T   T
  0.6789541544065472  0.7551160509492121  0.4893609786577855   T   T   T
  0.0615732991067404  0.0755676450881637  0.4513837496452169   T   T   T
  0.2737291249504210  0.8126985572911636  0.4832616540823622   T   T   T
  0.7750323015415432  0.2068080936739136  0.4808779765620770   T   T   T
  0.2587034328605853  0.7197254409461138  0.5385006880324923   T   T   T
 
  0.00000000E+00  0.00000000E+00  0.00000000E+00
  0.00000000E+00  0.00000000E+00  0.00000000E+00
  0.00000000E+00  0.00000000E+00  0.00000000E+00
  0.00000000E+00  0.00000000E+00  0.00000000E+00
  0.00000000E+00  0.00000000E+00  0.00000000E+00
  0.00000000E+00  0.00000000E+00  0.00000000E+00
  0.00000000E+00  0.00000000E+00  0.00000000E+00
  0.00000000E+00  0.00000000E+00  0.00000000E+00
  0.00000000E+00  0.00000000E+00  0.00000000E+00
  0.00000000E+00  0.00000000E+00  0.00000000E+00
  0.00000000E+00  0.00000000E+00  0.00000000E+00
  0.00000000E+00  0.00000000E+00  0.00000000E+00
  0.00000000E+00  0.00000000E+00  0.00000000E+00
  0.00000000E+00  0.00000000E+00  0.00000000E+00
  0.00000000E+00  0.00000000E+00  0.00000000E+00
  0.00000000E+00  0.00000000E+00  0.00000000E+00
  0.00000000E+00  0.00000000E+00  0.00000000E+00
  0.00000000E+00  0.00000000E+00  0.00000000E+00
  0.00000000E+00  0.00000000E+00  0.00000000E+00
  0.00000000E+00  0.00000000E+00  0.00000000E+00
  0.00000000E+00  0.00000000E+00  0.00000000E+00
  0.00000000E+00  0.00000000E+00  0.00000000E+00
  0.00000000E+00  0.00000000E+00  0.00000000E+00
  0.00000000E+00  0.00000000E+00  0.00000000E+00
  0.00000000E+00  0.00000000E+00  0.00000000E+00
  0.00000000E+00  0.00000000E+00  0.00000000E+00
  0.00000000E+00  0.00000000E+00  0.00000000E+00
  0.00000000E+00  0.00000000E+00  0.00000000E+00
  0.00000000E+00  0.00000000E+00  0.00000000E+00
  0.00000000E+00  0.00000000E+00  0.00000000E+00
  0.00000000E+00  0.00000000E+00  0.00000000E+00
  0.00000000E+00  0.00000000E+00  0.00000000E+00
  0.00000000E+00  0.00000000E+00  0.00000000E+00
  0.00000000E+00  0.00000000E+00  0.00000000E+00
  0.00000000E+00  0.00000000E+00  0.00000000E+00
  0.00000000E+00  0.00000000E+00  0.00000000E+00
  0.00000000E+00  0.00000000E+00  0.00000000E+00
  0.00000000E+00  0.00000000E+00  0.00000000E+00
  0.00000000E+00  0.00000000E+00  0.00000000E+00
  0.00000000E+00  0.00000000E+00  0.00000000E+00
  0.00000000E+00  0.00000000E+00  0.00000000E+00
  0.00000000E+00  0.00000000E+00  0.00000000E+00
  0.00000000E+00  0.00000000E+00  0.00000000E+00
  0.00000000E+00  0.00000000E+00  0.00000000E+00
  0.00000000E+00  0.00000000E+00  0.00000000E+00
  0.00000000E+00  0.00000000E+00  0.00000000E+00
  0.00000000E+00  0.00000000E+00  0.00000000E+00
  0.00000000E+00  0.00000000E+00  0.00000000E+00
  0.00000000E+00  0.00000000E+00  0.00000000E+00
  0.00000000E+00  0.00000000E+00  0.00000000E+00
  0.00000000E+00  0.00000000E+00  0.00000000E+00
  0.00000000E+00  0.00000000E+00  0.00000000E+00
  0.00000000E+00  0.00000000E+00  0.00000000E+00
  0.00000000E+00  0.00000000E+00  0.00000000E+00
  0.00000000E+00  0.00000000E+00  0.00000000E+00
  0.00000000E+00  0.00000000E+00  0.00000000E+00
  0.00000000E+00  0.00000000E+00  0.00000000E+00
