Generated by VASPKIT code               
   1.00000000000000     
     7.1406998634000001    0.0000000000000000    0.0000000000000000
     0.0000000000000000    6.1841001511000000    0.0000000000000000
     0.0000000000000000    0.0000000000000000   20.8304004668999987
   Hf   O 
     8    16
Selective dynamics
Direct
  0.7507999999999981  0.1669600000000031  0.0637899999999973   F   F   F
  0.2507999999999981  0.1669600000000031  0.0637899999999973   F   F   F
  0.5008029203089506  0.3337709823722994  0.1996521052491367   T   T   T
  0.0008029203089506  0.3337709823722994  0.1996521052491367   T   T   T
  0.0007999999999981  0.6669600000000031  0.0637899999999973   F   F   F
  0.5007999999999981  0.6669600000000031  0.0637899999999973   F   F   F
  0.7508029203089506  0.8337709823722994  0.1996521052491367   T   T   T
  0.2508029203089506  0.8337709823722994  0.1996521052491367   T   T   T
  0.5008013113206656  0.0003953461867790  0.2376181164386332   T   T   T
  0.0008100000000013  0.0003000000000029  0.0287999999999968   F   F   F
  0.0008013113206657  0.0003953461867790  0.2376181164386332   T   T   T
  0.5008100000000013  0.0003000000000029  0.0287999999999968   F   F   F
  0.7508012669378781  0.1670375295629798  0.1642140326283892   T   T   T
  0.2508012669378781  0.1670375295629798  0.1642140326283892   T   T   T
  0.0007999999999981  0.3336400000000026  0.0987799999999979   F   F   F
  0.5007999999999981  0.3336400000000026  0.0987799999999979   F   F   F
  0.7508013113206656  0.5003953461867789  0.2376181164386332   T   T   T
  0.2508100000000013  0.5003000000000029  0.0287999999999968   F   F   F
  0.2508013113206657  0.5003953461867789  0.2376181164386332   T   T   T
  0.7508100000000013  0.5003000000000029  0.0287999999999968   F   F   F
  0.0008012669378781  0.6670375295629799  0.1642140326283892   T   T   T
  0.5008012669378781  0.6670375295629799  0.1642140326283892   T   T   T
  0.2507999999999981  0.8336400000000026  0.0987799999999979   F   F   F
  0.7507999999999981  0.8336400000000026  0.0987799999999979   F   F   F
 
  0.00000000E+00  0.00000000E+00  0.00000000E+00
  0.00000000E+00  0.00000000E+00  0.00000000E+00
  0.00000000E+00  0.00000000E+00  0.00000000E+00
  0.00000000E+00  0.00000000E+00  0.00000000E+00
  0.00000000E+00  0.00000000E+00  0.00000000E+00
  0.00000000E+00  0.00000000E+00  0.00000000E+00
  0.00000000E+00  0.00000000E+00  0.00000000E+00
  0.00000000E+00  0.00000000E+00  0.00000000E+00
  0.00000000E+00  0.00000000E+00  0.00000000E+00
  0.00000000E+00  0.00000000E+00  0.00000000E+00
  0.00000000E+00  0.00000000E+00  0.00000000E+00
  0.00000000E+00  0.00000000E+00  0.00000000E+00
  0.00000000E+00  0.00000000E+00  0.00000000E+00
  0.00000000E+00  0.00000000E+00  0.00000000E+00
  0.00000000E+00  0.00000000E+00  0.00000000E+00
  0.00000000E+00  0.00000000E+00  0.00000000E+00
  0.00000000E+00  0.00000000E+00  0.00000000E+00
  0.00000000E+00  0.00000000E+00  0.00000000E+00
  0.00000000E+00  0.00000000E+00  0.00000000E+00
  0.00000000E+00  0.00000000E+00  0.00000000E+00
  0.00000000E+00  0.00000000E+00  0.00000000E+00
  0.00000000E+00  0.00000000E+00  0.00000000E+00
  0.00000000E+00  0.00000000E+00  0.00000000E+00
  0.00000000E+00  0.00000000E+00  0.00000000E+00
