Generated by VASPKIT code               
   1.00000000000000     
     7.1406998634000001    0.0000000000000000    0.0000000000000000
     0.0000000000000000    6.1841001511000000    0.0000000000000000
     0.0000000000000000    0.0000000000000000   20.8304004668999987
   Hf   O 
     8    16
Selective dynamics
Direct
  0.7507999999999981  0.1669600000000031  0.0637899999999973   F   F   F
  0.2507999999999981  0.1669600000000031  0.0637899999999973   F   F   F
  0.5008029508848066  0.3337700021775754  0.1996436521294152   T   T   T
  0.0008029508848065  0.3337700021775754  0.1996436521294152   T   T   T
  0.0007999999999981  0.6669600000000031  0.0637899999999973   F   F   F
  0.5007999999999981  0.6669600000000031  0.0637899999999973   F   F   F
  0.7508029508848066  0.8337700021775750  0.1996436521294152   T   T   T
  0.2508029508848064  0.8337700021775750  0.1996436521294152   T   T   T
  0.5008013266504081  0.0003939820021964  0.2376192834792132   T   T   T
  0.0008100000000013  0.0003000000000029  0.0287999999999968   F   F   F
  0.0008013266504080  0.0003939820021964  0.2376192834792132   T   T   T
  0.5008100000000013  0.0003000000000029  0.0287999999999968   F   F   F
  0.7508012920861378  0.1670370207231530  0.1642217708391584   T   T   T
  0.2508012920861376  0.1670370207231530  0.1642217708391584   T   T   T
  0.0007999999999981  0.3336400000000026  0.0987799999999979   F   F   F
  0.5007999999999981  0.3336400000000026  0.0987799999999979   F   F   F
  0.7508013266504081  0.5003939820021964  0.2376192834792132   T   T   T
  0.2508100000000013  0.5003000000000029  0.0287999999999968   F   F   F
  0.2508013266504079  0.5003939820021964  0.2376192834792132   T   T   T
  0.7508100000000013  0.5003000000000029  0.0287999999999968   F   F   F
  0.0008012920861375  0.6670370207231529  0.1642217708391584   T   T   T
  0.5008012920861378  0.6670370207231529  0.1642217708391584   T   T   T
  0.2507999999999981  0.8336400000000026  0.0987799999999979   F   F   F
  0.7507999999999981  0.8336400000000026  0.0987799999999979   F   F   F
 
  0.00000000E+00  0.00000000E+00  0.00000000E+00
  0.00000000E+00  0.00000000E+00  0.00000000E+00
  0.00000000E+00  0.00000000E+00  0.00000000E+00
  0.00000000E+00  0.00000000E+00  0.00000000E+00
  0.00000000E+00  0.00000000E+00  0.00000000E+00
  0.00000000E+00  0.00000000E+00  0.00000000E+00
  0.00000000E+00  0.00000000E+00  0.00000000E+00
  0.00000000E+00  0.00000000E+00  0.00000000E+00
  0.00000000E+00  0.00000000E+00  0.00000000E+00
  0.00000000E+00  0.00000000E+00  0.00000000E+00
  0.00000000E+00  0.00000000E+00  0.00000000E+00
  0.00000000E+00  0.00000000E+00  0.00000000E+00
  0.00000000E+00  0.00000000E+00  0.00000000E+00
  0.00000000E+00  0.00000000E+00  0.00000000E+00
  0.00000000E+00  0.00000000E+00  0.00000000E+00
  0.00000000E+00  0.00000000E+00  0.00000000E+00
  0.00000000E+00  0.00000000E+00  0.00000000E+00
  0.00000000E+00  0.00000000E+00  0.00000000E+00
  0.00000000E+00  0.00000000E+00  0.00000000E+00
  0.00000000E+00  0.00000000E+00  0.00000000E+00
  0.00000000E+00  0.00000000E+00  0.00000000E+00
  0.00000000E+00  0.00000000E+00  0.00000000E+00
  0.00000000E+00  0.00000000E+00  0.00000000E+00
  0.00000000E+00  0.00000000E+00  0.00000000E+00
