Generated by VASPKIT code               
   1.00000000000000     
     6.1840000152999997    0.0000000000000000    0.0000000000000000
     0.0000000000000000    7.1406998634000001    0.0000000000000000
     0.0000000000000000    0.0000000000000000   25.2031993866000015
   Hf   O    H 
    16    34     4
Selective dynamics
Direct
  0.0203599999999966  0.0305400000000020  0.1445799999999977   F   F   F
  0.0203599999999966  0.5305400000000020  0.1445799999999977   F   F   F
  0.1799753228298471  0.7770508432869931  0.2603349625433395   T   T   T
  0.1872026510868210  0.2710538933258206  0.2609671613893099   T   T   T
  0.3536900000000003  0.5305299999999988  0.0289199999999994   F   F   F
  0.3720011433384869  0.5239639903990465  0.3748145927766657   T   T   T
  0.3536900000000003  0.0305299999999988  0.0289199999999994   F   F   F
  0.3192759049512048  0.9967837422624584  0.3778623947725777   T   T   T
  0.5203599999999966  0.2805400000000020  0.1445799999999977   F   F   F
  0.5203599999999966  0.7805400000000020  0.1445799999999977   F   F   F
  0.6799500744078060  0.0338517668515834  0.2603224789149294   T   T   T
  0.6872092626172304  0.5398136145690628  0.2609755891366206   T   T   T
  0.8536900000000003  0.7805400000000020  0.0289199999999994   F   F   F
  0.8192907735388317  0.8139787958116642  0.3778556001877575   T   T   T
  0.8536900000000003  0.2805299999999988  0.0289199999999994   F   F   F
  0.8720508928105843  0.2867182584694987  0.3748232696316194   T   T   T
  0.0198630977386216  0.5270277230834139  0.2338588619965094   T   T   T
  0.0211070911894922  0.0335256742672314  0.2295418978611252   T   T   T
  0.0203599999999966  0.5305400000000020  0.0578300000000027   F   F   F
  0.0981472061151578  0.4497483230539814  0.4216592133596819   T   T   T
  0.0203599999999966  0.0305400000000020  0.0578300000000027   F   F   F
  0.0025233796484159  0.0420387614394500  0.4018231332488682   T   T   T
  0.1870300000000000  0.2805299999999988  0.1734999999999971   F   F   F
  0.1870300000000000  0.7805400000000020  0.1734999999999971   F   F   F
  0.1870300000000000  0.2805299999999988  0.0000000000000000   F   F   F
  0.2243041085111059  0.2739191934870036  0.3447564781875130   T   T   T
  0.1870300000000000  0.7805400000000020  0.0000000000000000   F   F   F
  0.1498126416639920  0.7526897287318519  0.3523442478526846   T   T   T
  0.3536900000000003  0.0305400000000020  0.1156700000000015   F   F   F
  0.3536900000000003  0.5305299999999988  0.1156700000000015   F   F   F
  0.3449303271009825  0.0085415856022877  0.2888552082219107   T   T   T
  0.3651238352803858  0.5437007218951635  0.2914626175027024   T   T   T
  0.5203599999999966  0.7805400000000020  0.0578300000000027   F   F   F
  0.5024581261071006  0.7685846526414650  0.4017594811408784   T   T   T
  0.5203599999999966  0.2805400000000020  0.0578300000000027   F   F   F
  0.5980935921629822  0.3610669745863646  0.4216794575295140   T   T   T
  0.5210533570399747  0.7773412305263534  0.2295420451491239   T   T   T
  0.5198593239552025  0.2838987184274160  0.2338479624687082   T   T   T
  0.6870300000000000  0.5305299999999988  0.0000000000000000   F   F   F
  0.7244437377129032  0.5367769953616630  0.3447546232946124   T   T   T
  0.6870300000000000  0.0305400000000020  0.0000000000000000   F   F   F
  0.6498244207070485  0.0581659966884231  0.3523816931501571   T   T   T
  0.6870300000000000  0.5305299999999988  0.1734999999999971   F   F   F
  0.6870300000000000  0.0305400000000020  0.1734999999999971   F   F   F
  0.8651129061570515  0.2670454971839220  0.2914596233464266   T   T   T
  0.8448258101865491  0.8023404400214531  0.2888593939677548   T   T   T
  0.8536900000000003  0.2805299999999988  0.1156700000000015   F   F   F
  0.8536900000000003  0.7805400000000020  0.1156700000000015   F   F   F
  0.3836305688399193  0.0895450447935531  0.4532874774505871   T   T   T
  0.8831315345406665  0.7208265093697861  0.4532802878839632   T   T   T
  0.5207406141744855  0.2561237685882531  0.4428794070099187   T   T   T
  0.0206643574431524  0.5547207240211733  0.4428370150869583   T   T   T
  0.2586587966785672  0.1242739420817003  0.4744391978540961   T   T   T
  0.7578055723141901  0.6846384119559588  0.4741157857234839   T   T   T
 
  0.00000000E+00  0.00000000E+00  0.00000000E+00
  0.00000000E+00  0.00000000E+00  0.00000000E+00
  0.00000000E+00  0.00000000E+00  0.00000000E+00
  0.00000000E+00  0.00000000E+00  0.00000000E+00
  0.00000000E+00  0.00000000E+00  0.00000000E+00
  0.00000000E+00  0.00000000E+00  0.00000000E+00
  0.00000000E+00  0.00000000E+00  0.00000000E+00
  0.00000000E+00  0.00000000E+00  0.00000000E+00
  0.00000000E+00  0.00000000E+00  0.00000000E+00
  0.00000000E+00  0.00000000E+00  0.00000000E+00
  0.00000000E+00  0.00000000E+00  0.00000000E+00
  0.00000000E+00  0.00000000E+00  0.00000000E+00
  0.00000000E+00  0.00000000E+00  0.00000000E+00
  0.00000000E+00  0.00000000E+00  0.00000000E+00
  0.00000000E+00  0.00000000E+00  0.00000000E+00
  0.00000000E+00  0.00000000E+00  0.00000000E+00
  0.00000000E+00  0.00000000E+00  0.00000000E+00
  0.00000000E+00  0.00000000E+00  0.00000000E+00
  0.00000000E+00  0.00000000E+00  0.00000000E+00
  0.00000000E+00  0.00000000E+00  0.00000000E+00
  0.00000000E+00  0.00000000E+00  0.00000000E+00
  0.00000000E+00  0.00000000E+00  0.00000000E+00
  0.00000000E+00  0.00000000E+00  0.00000000E+00
  0.00000000E+00  0.00000000E+00  0.00000000E+00
  0.00000000E+00  0.00000000E+00  0.00000000E+00
  0.00000000E+00  0.00000000E+00  0.00000000E+00
  0.00000000E+00  0.00000000E+00  0.00000000E+00
  0.00000000E+00  0.00000000E+00  0.00000000E+00
  0.00000000E+00  0.00000000E+00  0.00000000E+00
  0.00000000E+00  0.00000000E+00  0.00000000E+00
  0.00000000E+00  0.00000000E+00  0.00000000E+00
  0.00000000E+00  0.00000000E+00  0.00000000E+00
  0.00000000E+00  0.00000000E+00  0.00000000E+00
  0.00000000E+00  0.00000000E+00  0.00000000E+00
  0.00000000E+00  0.00000000E+00  0.00000000E+00
  0.00000000E+00  0.00000000E+00  0.00000000E+00
  0.00000000E+00  0.00000000E+00  0.00000000E+00
  0.00000000E+00  0.00000000E+00  0.00000000E+00
  0.00000000E+00  0.00000000E+00  0.00000000E+00
  0.00000000E+00  0.00000000E+00  0.00000000E+00
  0.00000000E+00  0.00000000E+00  0.00000000E+00
  0.00000000E+00  0.00000000E+00  0.00000000E+00
  0.00000000E+00  0.00000000E+00  0.00000000E+00
  0.00000000E+00  0.00000000E+00  0.00000000E+00
  0.00000000E+00  0.00000000E+00  0.00000000E+00
  0.00000000E+00  0.00000000E+00  0.00000000E+00
  0.00000000E+00  0.00000000E+00  0.00000000E+00
  0.00000000E+00  0.00000000E+00  0.00000000E+00
  0.00000000E+00  0.00000000E+00  0.00000000E+00
  0.00000000E+00  0.00000000E+00  0.00000000E+00
  0.00000000E+00  0.00000000E+00  0.00000000E+00
  0.00000000E+00  0.00000000E+00  0.00000000E+00
  0.00000000E+00  0.00000000E+00  0.00000000E+00
  0.00000000E+00  0.00000000E+00  0.00000000E+00
