Generated by VASPKIT code               
   1.00000000000000     
     6.1840000152999997    0.0000000000000000    0.0000000000000000
     0.0000000000000000    7.1406998634000001    0.0000000000000000
     0.0000000000000000    0.0000000000000000   25.2031993866000015
   Hf   O    H 
    16    35     6
Selective dynamics
Direct
  0.0203599999999966  0.0305400000000020  0.1445799999999977   F   F   F
  0.0203599999999966  0.5305400000000020  0.1445799999999977   F   F   F
  0.1852271142912809  0.7798225020081962  0.2634122451011467   T   T   T
  0.1978866123990518  0.2782952475265029  0.2622284251718818   T   T   T
  0.3536900000000003  0.5305299999999988  0.0289199999999994   F   F   F
  0.3866444420223256  0.5437520270458026  0.3758217335786538   T   T   T
  0.3536900000000003  0.0305299999999988  0.0289199999999994   F   F   F
  0.3852536184114577  0.0299734097778366  0.3760885005036597   T   T   T
  0.5203599999999966  0.2805400000000020  0.1445799999999977   F   F   F
  0.5203599999999966  0.7805400000000020  0.1445799999999977   F   F   F
  0.6971522147177961  0.0284723353684784  0.2581472178261801   T   T   T
  0.6956891856311099  0.5352161574636216  0.2591247605367504   T   T   T
  0.8536900000000003  0.7805400000000020  0.0289199999999994   F   F   F
  0.8741450018137734  0.7830836769587364  0.3993223756066022   T   T   T
  0.8536900000000003  0.2805299999999988  0.0289199999999994   F   F   F
  0.8535521407145971  0.2910140161122584  0.3780424927399043   T   T   T
  0.0416730938369071  0.5220786020620704  0.2357075187283242   T   T   T
  0.0450060003974552  0.0372175907149564  0.2350651434042249   T   T   T
  0.0203599999999966  0.5305400000000020  0.0578300000000027   F   F   F
  0.0902864467103165  0.5282185733672426  0.4179106418214231   T   T   T
  0.0203599999999966  0.0305400000000020  0.0578300000000027   F   F   F
  0.1290867182720812 -0.0189405358942425  0.4282615980938360   T   T   T
  0.1870300000000000  0.2805299999999988  0.1734999999999971   F   F   F
  0.1870300000000000  0.7805400000000020  0.1734999999999971   F   F   F
  0.1870300000000000  0.2805299999999988  0.0000000000000000   F   F   F
  0.1579748436901887  0.2530737343575009  0.3455888446693537   T   T   T
  0.1870300000000000  0.7805400000000020  0.0000000000000000   F   F   F
  0.1656597058897970  0.7753150380339852  0.3464943051158482   T   T   T
  0.3536900000000003  0.0305400000000020  0.1156700000000015   F   F   F
  0.3536900000000003  0.5305299999999988  0.1156700000000015   F   F   F
  0.3955837679293810  0.0234145581367982  0.2952248375489184   T   T   T
  0.3856900379354550  0.5251978865759646  0.2959082073727141   T   T   T
  0.5203599999999966  0.7805400000000020  0.0578300000000027   F   F   F
  0.5124494351081134  0.7807745079634467  0.4073668375536648   T   T   T
  0.5203599999999966  0.2805400000000020  0.0578300000000027   F   F   F
  0.5069302564734363  0.2871126134475420  0.4002987541154058   T   T   T
  0.5029565170027764  0.7758828845509012  0.2295212903065458   T   T   T
  0.5064158819241045  0.2796936530664400  0.2289134705191188   T   T   T
  0.6870300000000000  0.5305299999999988  0.0000000000000000   F   F   F
  0.7400979135390370  0.5502869438678356  0.3561281590733943   T   T   T
  0.6870300000000000  0.0305400000000020  0.0000000000000000   F   F   F
  0.7453725667813490  0.0214781775459622  0.3619670121668279   T   T   T
  0.6870300000000000  0.5305299999999988  0.1734999999999971   F   F   F
  0.6870300000000000  0.0305400000000020  0.1734999999999971   F   F   F
  0.8187383942291010  0.2804947081597062  0.2893789808270683   T   T   T
  0.8449359887643206  0.7832589540488133  0.2781174286999845   T   T   T
  0.8536900000000003  0.2805299999999988  0.1156700000000015   F   F   F
  0.8536900000000003  0.7805400000000020  0.1156700000000015   F   F   F
  0.8437793267415067  0.7616125411249816  0.4771103782282318   T   T   T
  0.8880088508836121  0.2534707067494407  0.4591958907756158   T   T   T
  0.4072993177063524  0.6319534300614107  0.5073193845098170   T   T   T
  0.0686901931449652  0.4826352150775549  0.4542292619875227   T   T   T
  0.7088267817557367  0.7184239994195403  0.4933473892887869   T   T   T
  0.0597284914363583  0.0748142293607541  0.4526912012420470   T   T   T
  0.3599694243683712  0.7327403996613706  0.4836814877641801   T   T   T
  0.7654513322410021  0.2235902817722198  0.4816996721420372   T   T   T
  0.3072950555738475  0.6356204029245308  0.5370430555745136   T   T   T
 
  0.00000000E+00  0.00000000E+00  0.00000000E+00
  0.00000000E+00  0.00000000E+00  0.00000000E+00
  0.00000000E+00  0.00000000E+00  0.00000000E+00
  0.00000000E+00  0.00000000E+00  0.00000000E+00
  0.00000000E+00  0.00000000E+00  0.00000000E+00
  0.00000000E+00  0.00000000E+00  0.00000000E+00
  0.00000000E+00  0.00000000E+00  0.00000000E+00
  0.00000000E+00  0.00000000E+00  0.00000000E+00
  0.00000000E+00  0.00000000E+00  0.00000000E+00
  0.00000000E+00  0.00000000E+00  0.00000000E+00
  0.00000000E+00  0.00000000E+00  0.00000000E+00
  0.00000000E+00  0.00000000E+00  0.00000000E+00
  0.00000000E+00  0.00000000E+00  0.00000000E+00
  0.00000000E+00  0.00000000E+00  0.00000000E+00
  0.00000000E+00  0.00000000E+00  0.00000000E+00
  0.00000000E+00  0.00000000E+00  0.00000000E+00
  0.00000000E+00  0.00000000E+00  0.00000000E+00
  0.00000000E+00  0.00000000E+00  0.00000000E+00
  0.00000000E+00  0.00000000E+00  0.00000000E+00
  0.00000000E+00  0.00000000E+00  0.00000000E+00
  0.00000000E+00  0.00000000E+00  0.00000000E+00
  0.00000000E+00  0.00000000E+00  0.00000000E+00
  0.00000000E+00  0.00000000E+00  0.00000000E+00
  0.00000000E+00  0.00000000E+00  0.00000000E+00
  0.00000000E+00  0.00000000E+00  0.00000000E+00
  0.00000000E+00  0.00000000E+00  0.00000000E+00
  0.00000000E+00  0.00000000E+00  0.00000000E+00
  0.00000000E+00  0.00000000E+00  0.00000000E+00
  0.00000000E+00  0.00000000E+00  0.00000000E+00
  0.00000000E+00  0.00000000E+00  0.00000000E+00
  0.00000000E+00  0.00000000E+00  0.00000000E+00
  0.00000000E+00  0.00000000E+00  0.00000000E+00
  0.00000000E+00  0.00000000E+00  0.00000000E+00
  0.00000000E+00  0.00000000E+00  0.00000000E+00
  0.00000000E+00  0.00000000E+00  0.00000000E+00
  0.00000000E+00  0.00000000E+00  0.00000000E+00
  0.00000000E+00  0.00000000E+00  0.00000000E+00
  0.00000000E+00  0.00000000E+00  0.00000000E+00
  0.00000000E+00  0.00000000E+00  0.00000000E+00
  0.00000000E+00  0.00000000E+00  0.00000000E+00
  0.00000000E+00  0.00000000E+00  0.00000000E+00
  0.00000000E+00  0.00000000E+00  0.00000000E+00
  0.00000000E+00  0.00000000E+00  0.00000000E+00
  0.00000000E+00  0.00000000E+00  0.00000000E+00
  0.00000000E+00  0.00000000E+00  0.00000000E+00
  0.00000000E+00  0.00000000E+00  0.00000000E+00
  0.00000000E+00  0.00000000E+00  0.00000000E+00
  0.00000000E+00  0.00000000E+00  0.00000000E+00
  0.00000000E+00  0.00000000E+00  0.00000000E+00
  0.00000000E+00  0.00000000E+00  0.00000000E+00
  0.00000000E+00  0.00000000E+00  0.00000000E+00
  0.00000000E+00  0.00000000E+00  0.00000000E+00
  0.00000000E+00  0.00000000E+00  0.00000000E+00
  0.00000000E+00  0.00000000E+00  0.00000000E+00
  0.00000000E+00  0.00000000E+00  0.00000000E+00
  0.00000000E+00  0.00000000E+00  0.00000000E+00
  0.00000000E+00  0.00000000E+00  0.00000000E+00
