Generated by VASPKIT code               
1.0
        7.1406998634         0.0000000000         0.0000000000
        0.0000000000         6.1841001511         0.0000000000
        0.0000000000         0.0000000000        20.8304004669
   Hf    O    H
    8   19    6
Direct
     0.751740000         0.171350000         0.073000000
     0.251740000         0.171350000         0.073000000
     0.508312088         0.350864298         0.211169572
     0.004389158         0.351770443         0.206246511
     0.001740000         0.671350000         0.073000000
     0.501740000         0.671350000         0.073000000
     0.758586444         0.841620409         0.217874491
     0.262539830         0.829869064         0.211409549
     0.505720580         0.035189518         0.257353681
     0.001750000         0.004690000         0.038010000
     0.957665359         0.079697587         0.262855901
     0.501750000         0.004690000         0.038010000
     0.742296447         0.152186159         0.172749103
     0.249941261         0.151880234         0.175442568
     0.001740000         0.338030000         0.107990000
     0.525571662         0.435443485         0.321936720
     0.501740000         0.338030000         0.107990000
     0.760581231         0.495852342         0.230445723
     0.251750000         0.504690000         0.038010000
     0.245728028         0.489436817         0.240798494
     0.751750000         0.504690000         0.038010000
     0.007763750         0.709522878         0.179861059
     0.502596634         0.693070608         0.179859473
     0.251740000         0.838030000         0.107990000
     0.752890159         0.764783556         0.316884101
     0.751740000         0.838030000         0.107990000
     0.218757922         0.861445944         0.312117183
     0.620173702         0.560223522         0.326687604
     0.754083873         0.883921829         0.347326956
     0.145777955         0.749089907         0.333119446
     0.403604953         0.497680262         0.332117919
     0.476111823         0.020226482         0.302946805
     0.049122301         0.017950162         0.295253434
