Generated by VASPKIT code
1.0
        7.1406998634         0.0000000000         0.0000000000
        0.0000000000         6.1841001511         0.0000000000
        0.0000000000         0.0000000000        20.8304004669
   Hf    O    H
    8   19    6
Direct
     0.751740000         0.171350000         0.073000000
     0.251740000         0.171350000         0.073000000
     0.501400000         0.338510000         0.212390000
     0.001320000         0.338430000         0.212410000
     0.001740000         0.671350000         0.073000000
     0.501740000         0.671350000         0.073000000
     0.751430000         0.838850000         0.212530000
     0.251390000         0.838190000         0.212020000
     0.501430000         0.004220000         0.244340000
     0.001750000         0.004690000         0.038010000
     0.001780000         0.005030000         0.244190000
     0.501750000         0.004690000         0.038010000
     0.751810000         0.171440000         0.176390000
     0.252030000         0.171670000         0.176310000
     0.001740000         0.338030000         0.107990000
     0.483950000         0.349460000         0.313200000
     0.501740000         0.338030000         0.107990000
     0.751730000         0.505180000         0.244180000
     0.251750000         0.504690000         0.038010000
     0.252030000         0.504940000         0.244590000
     0.751750000         0.504690000         0.038010000
     0.002190000         0.671210000         0.176310000
     0.501620000         0.671310000         0.176250000
     0.251740000         0.838030000         0.107990000
     0.733180000         0.850300000         0.313210000
     0.751740000         0.838030000         0.107990000
     0.231050000         0.852110000         0.313190000
     0.574260000         0.292790000         0.343790000
     0.823420000         0.793650000         0.343820000
     0.318930000         0.794890000         0.344480000
     0.262430000         0.497980000         0.291670000
     0.511690000         0.999070000         0.291440000
     0.017460000         0.994800000         0.291170000
