Generated by VASPKIT code               
   1.00000000000000     
     7.1406998634000001    0.0000000000000000    0.0000000000000000
     0.0000000000000000    6.1841001511000000    0.0000000000000000
     0.0000000000000000    0.0000000000000000   20.8304004668999987
   Hf   O    H 
     8    17     2
Selective dynamics
Direct
  0.7517399999999981  0.1713499999999968  0.0730000000000004   F   F   F
  0.2517399999999981  0.1713499999999968  0.0730000000000004   F   F   F
  0.5098427100715414  0.3352952249151060  0.2085655592127622   T   T   T
 -0.0071335718230679  0.3345851809286068  0.2087357017322751   T   T   T
  0.0017399999999981  0.6713499999999968  0.0730000000000004   F   F   F
  0.5017399999999981  0.6713499999999968  0.0730000000000004   F   F   F
  0.7505656514726375  0.8375020496378172  0.2092997931561998   T   T   T
  0.2495216277724795  0.8722695736552218  0.2139795305855122   T   T   T
  0.5203474432122592  0.0157845890367098  0.2454339744327698   T   T   T
  0.0017500000000013  0.0046899999999965  0.0380099999999999   F   F   F
 -0.0164166799926770  0.0137747080086634  0.2441890133204864   T   T   T
  0.5017500000000013  0.0046899999999965  0.0380099999999999   F   F   F
  0.7510267440587024  0.1757737639596351  0.1710537226089468   T   T   T
  0.2524353599662059  0.1761784215332602  0.1727324768549761   T   T   T
  0.0017399999999981  0.3380300000000034  0.1079900000000009   F   F   F
  0.5017399999999981  0.3380300000000034  0.1079900000000009   F   F   F
  0.7514840813479957  0.5054246286921714  0.2464003800028699   T   T   T
  0.2517500000000013  0.5046899999999965  0.0380099999999999   F   F   F
  0.2503690241044959  0.4002376558955005  0.2643748519434250   T   T   T
  0.7517500000000013  0.5046899999999965  0.0380099999999999   F   F   F
  0.0195662265378565  0.6659302127335950  0.1784930372213518   T   T   T
  0.4845188198698679  0.6670473555795678  0.1781572270039198   T   T   T
  0.2517399999999981  0.8380300000000034  0.1079900000000009   F   F   F
  0.7517399999999981  0.8380300000000034  0.1079900000000009   F   F   F
  0.2595086092105977  0.7716383906468032  0.3073454400427573   T   T   T
  0.3371832766806830  0.8471714354230530  0.3381685407563734   T   T   T
  0.2550141770464359  0.5257210829757575  0.2958001110625081   T   T   T
 
  0.00000000E+00  0.00000000E+00  0.00000000E+00
  0.00000000E+00  0.00000000E+00  0.00000000E+00
  0.00000000E+00  0.00000000E+00  0.00000000E+00
  0.00000000E+00  0.00000000E+00  0.00000000E+00
  0.00000000E+00  0.00000000E+00  0.00000000E+00
  0.00000000E+00  0.00000000E+00  0.00000000E+00
  0.00000000E+00  0.00000000E+00  0.00000000E+00
  0.00000000E+00  0.00000000E+00  0.00000000E+00
  0.00000000E+00  0.00000000E+00  0.00000000E+00
  0.00000000E+00  0.00000000E+00  0.00000000E+00
  0.00000000E+00  0.00000000E+00  0.00000000E+00
  0.00000000E+00  0.00000000E+00  0.00000000E+00
  0.00000000E+00  0.00000000E+00  0.00000000E+00
  0.00000000E+00  0.00000000E+00  0.00000000E+00
  0.00000000E+00  0.00000000E+00  0.00000000E+00
  0.00000000E+00  0.00000000E+00  0.00000000E+00
  0.00000000E+00  0.00000000E+00  0.00000000E+00
  0.00000000E+00  0.00000000E+00  0.00000000E+00
  0.00000000E+00  0.00000000E+00  0.00000000E+00
  0.00000000E+00  0.00000000E+00  0.00000000E+00
  0.00000000E+00  0.00000000E+00  0.00000000E+00
  0.00000000E+00  0.00000000E+00  0.00000000E+00
  0.00000000E+00  0.00000000E+00  0.00000000E+00
  0.00000000E+00  0.00000000E+00  0.00000000E+00
  0.00000000E+00  0.00000000E+00  0.00000000E+00
  0.00000000E+00  0.00000000E+00  0.00000000E+00
  0.00000000E+00  0.00000000E+00  0.00000000E+00
