Generated by VASPKIT code               
   1.00000000000000     
     6.1840000152999997    0.0000000000000000    0.0000000000000000
     0.0000000000000000    7.1406998634000001    0.0000000000000000
     0.0000000000000000    0.0000000000000000   25.2031993866000015
   Hf   O    H 
    16    33     2
Selective dynamics
Direct
  0.0203699999999998  0.0305400000000020  0.1443999999999974   F   F   F
  0.0203699999999998  0.5305400000000020  0.1443999999999974   F   F   F
  0.1851479666015184  0.7803671382382568  0.2598845783191098   T   T   T
  0.2027701185649248  0.2803925066188800  0.2582155613301189   T   T   T
  0.3537000000000035  0.5305299999999988  0.0287399999999991   F   F   F
  0.3486645909019573  0.5231058323863171  0.3737192262455258   T   T   T
  0.3537000000000035  0.0305299999999988  0.0287399999999991   F   F   F
  0.3481874055677075  0.0382392483337027  0.3738540599856205   T   T   T
  0.5203699999999998  0.2805400000000020  0.1443999999999974   F   F   F
  0.5203699999999998  0.7805400000000020  0.1443999999999974   F   F   F
  0.6889352225612542  0.0230685830214842  0.2620070513656388   T   T   T
  0.6892617928359240  0.5378927067980191  0.2622658042375485   T   T   T
  0.8537000000000035  0.7805299999999988  0.0287399999999991   F   F   F
  0.8851917456263572  0.7813969140176052  0.3855696751717382   T   T   T
  0.8537000000000035  0.2805299999999988  0.0287399999999991   F   F   F
  0.8558071298539132  0.2812467366087363  0.3774530656759087   T   T   T
  0.0239718663349177  0.5179584590700560  0.2331991215402237   T   T   T
  0.0240922323141662  0.0429516428727195  0.2330459796832538   T   T   T
  0.0203699999999998  0.5305400000000020  0.0576500000000024   F   F   F
  0.0331094450667980  0.5066625383154508  0.4073944009904282   T   T   T
  0.0203699999999998  0.0305400000000020  0.0576500000000024   F   F   F
  0.0315727304617151  0.0535392594130237  0.4065062884593476   T   T   T
  0.1870400000000032  0.2805299999999988  0.1733199999999968   F   F   F
  0.1870400000000032  0.7805299999999988  0.1733199999999968   F   F   F
  0.1868248707689175  0.2805523694954548  0.9970020623557707   T   T   T
  0.1862426078504741  0.2812454840391261  0.3416695067365959   T   T   T
  0.1868281821754806  0.7805344265449152  0.9970161710172698   T   T   T
  0.1790809002941630  0.7792292194725533  0.3447953320926535   T   T   T
  0.3537000000000035  0.0305299999999988  0.1154900000000012   F   F   F
  0.3537000000000035  0.5305299999999988  0.1154900000000012   F   F   F
  0.3618856153643791  0.0279076404390176  0.2903934028696478   T   T   T
  0.3626071364102460  0.5330048089663887  0.2901839387934461   T   T   T
  0.5203699999999998  0.7805400000000020  0.0576500000000024   F   F   F
  0.3993085499829901  0.7806087732228820  0.4228489258434852   T   T   T
  0.5203699999999998  0.2805400000000020  0.0576500000000024   F   F   F
  0.5203809925821490  0.2804818805755878  0.4033078055000931   T   T   T
  0.5143099098577247  0.7806477757799030  0.2305887907030327   T   T   T
  0.5178820594381647  0.2802625803353673  0.2300969689472919   T   T   T
  0.6872280333552144  0.5306007849330568  0.9970099054514141   T   T   T
  0.6816190092637361  0.5709228574632301  0.3526462256312154   T   T   T
  0.6872205507250918  0.0304862056510261  0.9970097742594902   T   T   T
  0.6795065915808222 -0.0117958447691652  0.3531704364486967   T   T   T
  0.6870400000000032  0.5305299999999988  0.1733199999999968   F   F   F
  0.6870400000000032  0.0305299999999988  0.1733199999999968   F   F   F
  0.8151436174745256  0.2797292851299950  0.2968683863378371   T   T   T
  0.8573392349759510  0.7808699254810555  0.2815426184692060   T   T   T
  0.8537000000000035  0.2805299999999988  0.1154900000000012   F   F   F
  0.8537000000000035  0.7805299999999988  0.1154900000000012   F   F   F
  0.7857462737629919  0.7737792352160506  0.4610423502565689   T   T   T
  0.5181623452691284  0.7777546375425582  0.4496147752492183   T   T   T
  0.8650246635996149  0.7137632112095871  0.4894682735931458   T   T   T
 
  0.00000000E+00  0.00000000E+00  0.00000000E+00
  0.00000000E+00  0.00000000E+00  0.00000000E+00
  0.00000000E+00  0.00000000E+00  0.00000000E+00
  0.00000000E+00  0.00000000E+00  0.00000000E+00
  0.00000000E+00  0.00000000E+00  0.00000000E+00
  0.00000000E+00  0.00000000E+00  0.00000000E+00
  0.00000000E+00  0.00000000E+00  0.00000000E+00
  0.00000000E+00  0.00000000E+00  0.00000000E+00
  0.00000000E+00  0.00000000E+00  0.00000000E+00
  0.00000000E+00  0.00000000E+00  0.00000000E+00
  0.00000000E+00  0.00000000E+00  0.00000000E+00
  0.00000000E+00  0.00000000E+00  0.00000000E+00
  0.00000000E+00  0.00000000E+00  0.00000000E+00
  0.00000000E+00  0.00000000E+00  0.00000000E+00
  0.00000000E+00  0.00000000E+00  0.00000000E+00
  0.00000000E+00  0.00000000E+00  0.00000000E+00
  0.00000000E+00  0.00000000E+00  0.00000000E+00
  0.00000000E+00  0.00000000E+00  0.00000000E+00
  0.00000000E+00  0.00000000E+00  0.00000000E+00
  0.00000000E+00  0.00000000E+00  0.00000000E+00
  0.00000000E+00  0.00000000E+00  0.00000000E+00
  0.00000000E+00  0.00000000E+00  0.00000000E+00
  0.00000000E+00  0.00000000E+00  0.00000000E+00
  0.00000000E+00  0.00000000E+00  0.00000000E+00
  0.00000000E+00  0.00000000E+00  0.00000000E+00
  0.00000000E+00  0.00000000E+00  0.00000000E+00
  0.00000000E+00  0.00000000E+00  0.00000000E+00
  0.00000000E+00  0.00000000E+00  0.00000000E+00
  0.00000000E+00  0.00000000E+00  0.00000000E+00
  0.00000000E+00  0.00000000E+00  0.00000000E+00
  0.00000000E+00  0.00000000E+00  0.00000000E+00
  0.00000000E+00  0.00000000E+00  0.00000000E+00
  0.00000000E+00  0.00000000E+00  0.00000000E+00
  0.00000000E+00  0.00000000E+00  0.00000000E+00
  0.00000000E+00  0.00000000E+00  0.00000000E+00
  0.00000000E+00  0.00000000E+00  0.00000000E+00
  0.00000000E+00  0.00000000E+00  0.00000000E+00
  0.00000000E+00  0.00000000E+00  0.00000000E+00
  0.00000000E+00  0.00000000E+00  0.00000000E+00
  0.00000000E+00  0.00000000E+00  0.00000000E+00
  0.00000000E+00  0.00000000E+00  0.00000000E+00
  0.00000000E+00  0.00000000E+00  0.00000000E+00
  0.00000000E+00  0.00000000E+00  0.00000000E+00
  0.00000000E+00  0.00000000E+00  0.00000000E+00
  0.00000000E+00  0.00000000E+00  0.00000000E+00
  0.00000000E+00  0.00000000E+00  0.00000000E+00
  0.00000000E+00  0.00000000E+00  0.00000000E+00
  0.00000000E+00  0.00000000E+00  0.00000000E+00
  0.00000000E+00  0.00000000E+00  0.00000000E+00
  0.00000000E+00  0.00000000E+00  0.00000000E+00
  0.00000000E+00  0.00000000E+00  0.00000000E+00
