Generated by VASPKIT code
 1.000000
    6.1840000152999997    0.0000000000000000    0.0000000000000000
    0.0000000000000000    7.1406998634000001    0.0000000000000000
    0.0000000000000000    0.0000000000000000   25.2031993866000015
   Hf   O    H 
    16    33     2
Selective Dynamics
Direct
    0.0203700000000000    0.0305400000000000    0.1444000000000000    F  F  F    Hf001
    0.0203700000000000    0.5305400000000000    0.1444000000000000    F  F  F    Hf002
    0.1870400000000000    0.7805299999999999    0.2607300000000000    T  T  T    Hf003
    0.1870400000000000    0.2805300000000000    0.2607300000000000    T  T  T    Hf004
    0.3537000000000000    0.5305299999999999    0.0287400000000000    F  F  F    Hf005
    0.3537100000000000    0.5305299999999999    0.3748700000000000    T  T  T    Hf006
    0.3537000000000000    0.0305300000000000    0.0287400000000000    F  F  F    Hf007
    0.3537100000000000    0.0305300000000000    0.3748700000000000    T  T  T    Hf008
    0.5203700000000000    0.2805400000000000    0.1444000000000000    F  F  F    Hf009
    0.5203700000000000    0.7805400000000000    0.1444000000000000    F  F  F    Hf010
    0.6870400000000000    0.0305300000000000    0.2607300000000000    T  T  T    Hf011
    0.6870400000000000    0.5305299999999999    0.2607300000000000    T  T  T    Hf012
    0.8537000000000000    0.7805299999999999    0.0287400000000000    F  F  F    Hf013
    0.8537100000000000    0.7805299999999999    0.3748700000000000    T  T  T    Hf014
    0.8537000000000000    0.2805300000000000    0.0287400000000000    F  F  F    Hf015
    0.8537100000000000    0.2805300000000000    0.3748700000000000    T  T  T    Hf016
    0.0203700000000000    0.5305400000000000    0.2317900000000000    T  T  T     O001
    0.0203700000000000    0.0305400000000000    0.2317900000000000    T  T  T     O002
    0.0203700000000000    0.5305400000000000    0.0576500000000000    F  F  F     O003
    0.0203700000000000    0.5305400000000000    0.4064400000000000    T  T  T     O004
    0.0203700000000000    0.0305400000000000    0.0576500000000000    F  F  F     O005
    0.0203700000000000    0.0305400000000000    0.4064400000000000    T  T  T     O006
    0.1870400000000000    0.2805300000000000    0.1733200000000000    F  F  F     O007
    0.1870400000000000    0.7805299999999999    0.1733200000000000    F  F  F     O008
    0.1870400000000000    0.2805300000000000    0.9998200000000000    T  T  T     O009
    0.1870400000000000    0.2805400000000000    0.3457800000000000    T  T  T     O010
    0.1870400000000000    0.7805299999999999    0.9998200000000000    T  T  T     O011
    0.1870400000000000    0.7805400000000000    0.3457800000000000    T  T  T     O012
    0.3537000000000000    0.0305300000000000    0.1154900000000000    F  F  F     O013
    0.3537000000000000    0.5305299999999999    0.1154900000000000    F  F  F     O014
    0.3537000000000000    0.0305400000000000    0.2900700000000000    T  T  T     O015
    0.3537000000000000    0.5305400000000000    0.2900700000000000    T  T  T     O016
    0.5203700000000000    0.7805400000000000    0.0576500000000000    F  F  F     O017
    0.5203700000000000    0.7805400000000000    0.4064400000000000    T  T  T     O018
    0.5203700000000000    0.2805400000000000    0.0576500000000000    F  F  F     O019
    0.5203700000000000    0.2805400000000000    0.4064400000000000    T  T  T     O020
    0.5203700000000000    0.7805400000000000    0.2317900000000000    T  T  T     O021
    0.5203700000000000    0.2805400000000000    0.2317900000000000    T  T  T     O022
    0.6870400000000000    0.5305299999999999    0.9998200000000000    T  T  T     O023
    0.6870400000000000    0.5305400000000000    0.3457800000000000    T  T  T     O024
    0.6870400000000000    0.0305300000000000    0.9998200000000000    T  T  T     O025
    0.6870400000000000    0.0305400000000000    0.3457800000000000    T  T  T     O026
    0.6870400000000000    0.5305299999999999    0.1733200000000000    F  F  F     O027
    0.6870400000000000    0.0305300000000000    0.1733200000000000    F  F  F     O028
    0.8537000000000000    0.2805400000000000    0.2900700000000000    T  T  T     O029
    0.8537000000000000    0.7805400000000000    0.2900700000000000    T  T  T     O030
    0.8537000000000000    0.2805300000000000    0.1154900000000000    F  F  F     O031
    0.8537000000000000    0.7805299999999999    0.1154900000000000    F  F  F     O032
    0.8540200000000000    0.7778300000000000    0.4588000000000000    T  T  T     O033
    0.5180200000000000    0.7806800000000000    0.4454800000000000    T  T  T     H001
    0.7979900000000000    0.6865800000000000    0.4842900000000000    T  T  T     H002
