Generated by VASPKIT code               
   1.00000000000000     
     6.1840271949999996    0.0000000000000000    0.0000000000000000
     0.0000000000000000    7.1406998634000001    0.0000000000000000
     0.0000000000000000    0.0000000000000000   25.2031993866000015
   Hf   O 
    16    32
Selective dynamics
Direct
  0.0203599999999966  0.0305400000000020  0.1445799999999977   F   F   F
  0.0203599999999966  0.5305400000000020  0.1445799999999977   F   F   F
  0.1870291936295061  0.7805306476773453  0.2609147872379083   T   T   T
  0.1870291936295061  0.2805306476773453  0.2609147872379083   T   T   T
  0.3536900000000003  0.5305350000000004  0.0289199999999994   F   F   F
  0.3536990117477359  0.5305271988894447  0.3750522896691493   T   T   T
  0.3536900000000003  0.0305350000000004  0.0289199999999994   F   F   F
  0.3536990117477359  0.0305271988894447  0.3750522896691493   T   T   T
  0.5203599999999966  0.2805400000000020  0.1445799999999977   F   F   F
  0.5203599999999966  0.7805400000000020  0.1445799999999977   F   F   F
  0.6870291936295061  0.0305306476773453  0.2609147872379083   T   T   T
  0.6870291936295061  0.5305306476773453  0.2609147872379083   T   T   T
  0.8536900000000003  0.7805350000000004  0.0289199999999994   F   F   F
  0.8536990117477359  0.7805271988894447  0.3750522896691493   T   T   T
  0.8536900000000003  0.2805350000000004  0.0289199999999994   F   F   F
  0.8536990117477359  0.2805271988894447  0.3750522896691493   T   T   T
  0.0203608525331589  0.5305368738452003  0.2319731877996176   T   T   T
  0.0203608525331589  0.0305368738452003  0.2319731877996176   T   T   T
  0.0203599999999966  0.5305400000000020  0.0578300000000027   F   F   F
  0.0203548570741177  0.5305441539068738  0.4066227023890860   T   T   T
  0.0203599999999966  0.0305400000000020  0.0578300000000027   F   F   F
  0.0203548570741177  0.0305441539068738  0.4066227023890860   T   T   T
  0.1870300000000000  0.2805350000000004  0.1734999999999971   F   F   F
  0.1870300000000000  0.7805350000000004  0.1734999999999971   F   F   F
  0.1870300000000000  0.2805350000000004  0.0000000000000000   F   F   F
  0.1870243886645540  0.2805403900368120  0.3459646306799016   T   T   T
  0.1870300000000000  0.7805350000000004  0.0000000000000000   F   F   F
  0.1870243886645540  0.7805403900368120  0.3459646306799016   T   T   T
  0.3536900000000003  0.0305350000000004  0.1156700000000015   F   F   F
  0.3536900000000003  0.5305350000000004  0.1156700000000015   F   F   F
  0.3536930894669936  0.0305372414205820  0.2902536391329917   T   T   T
  0.3536930894669936  0.5305372414205820  0.2902536391329917   T   T   T
  0.5203599999999966  0.7805400000000020  0.0578300000000027   F   F   F
  0.5203548570741177  0.7805441539068738  0.4066227023890860   T   T   T
  0.5203599999999966  0.2805400000000020  0.0578300000000027   F   F   F
  0.5203548570741177  0.2805441539068738  0.4066227023890860   T   T   T
  0.5203608525331589  0.7805368738452003  0.2319731877996176   T   T   T
  0.5203608525331589  0.2805368738452003  0.2319731877996176   T   T   T
  0.6870300000000000  0.5305350000000004  0.0000000000000000   F   F   F
  0.6870243886645540  0.5305403900368120  0.3459646306799016   T   T   T
  0.6870300000000000  0.0305350000000004  0.0000000000000000   F   F   F
  0.6870243886645540  0.0305403900368120  0.3459646306799016   T   T   T
  0.6870300000000000  0.5305350000000004  0.1734999999999971   F   F   F
  0.6870300000000000  0.0305350000000004  0.1734999999999971   F   F   F
  0.8536930894669936  0.2805372414205820  0.2902536391329917   T   T   T
  0.8536930894669936  0.7805372414205820  0.2902536391329917   T   T   T
  0.8536900000000003  0.2805350000000004  0.1156700000000015   F   F   F
  0.8536900000000003  0.7805350000000004  0.1156700000000015   F   F   F
 
  0.00000000E+00  0.00000000E+00  0.00000000E+00
  0.00000000E+00  0.00000000E+00  0.00000000E+00
  0.00000000E+00  0.00000000E+00  0.00000000E+00
  0.00000000E+00  0.00000000E+00  0.00000000E+00
  0.00000000E+00  0.00000000E+00  0.00000000E+00
  0.00000000E+00  0.00000000E+00  0.00000000E+00
  0.00000000E+00  0.00000000E+00  0.00000000E+00
  0.00000000E+00  0.00000000E+00  0.00000000E+00
  0.00000000E+00  0.00000000E+00  0.00000000E+00
  0.00000000E+00  0.00000000E+00  0.00000000E+00
  0.00000000E+00  0.00000000E+00  0.00000000E+00
  0.00000000E+00  0.00000000E+00  0.00000000E+00
  0.00000000E+00  0.00000000E+00  0.00000000E+00
  0.00000000E+00  0.00000000E+00  0.00000000E+00
  0.00000000E+00  0.00000000E+00  0.00000000E+00
  0.00000000E+00  0.00000000E+00  0.00000000E+00
  0.00000000E+00  0.00000000E+00  0.00000000E+00
  0.00000000E+00  0.00000000E+00  0.00000000E+00
  0.00000000E+00  0.00000000E+00  0.00000000E+00
  0.00000000E+00  0.00000000E+00  0.00000000E+00
  0.00000000E+00  0.00000000E+00  0.00000000E+00
  0.00000000E+00  0.00000000E+00  0.00000000E+00
  0.00000000E+00  0.00000000E+00  0.00000000E+00
  0.00000000E+00  0.00000000E+00  0.00000000E+00
  0.00000000E+00  0.00000000E+00  0.00000000E+00
  0.00000000E+00  0.00000000E+00  0.00000000E+00
  0.00000000E+00  0.00000000E+00  0.00000000E+00
  0.00000000E+00  0.00000000E+00  0.00000000E+00
  0.00000000E+00  0.00000000E+00  0.00000000E+00
  0.00000000E+00  0.00000000E+00  0.00000000E+00
  0.00000000E+00  0.00000000E+00  0.00000000E+00
  0.00000000E+00  0.00000000E+00  0.00000000E+00
  0.00000000E+00  0.00000000E+00  0.00000000E+00
  0.00000000E+00  0.00000000E+00  0.00000000E+00
  0.00000000E+00  0.00000000E+00  0.00000000E+00
  0.00000000E+00  0.00000000E+00  0.00000000E+00
  0.00000000E+00  0.00000000E+00  0.00000000E+00
  0.00000000E+00  0.00000000E+00  0.00000000E+00
  0.00000000E+00  0.00000000E+00  0.00000000E+00
  0.00000000E+00  0.00000000E+00  0.00000000E+00
  0.00000000E+00  0.00000000E+00  0.00000000E+00
  0.00000000E+00  0.00000000E+00  0.00000000E+00
  0.00000000E+00  0.00000000E+00  0.00000000E+00
  0.00000000E+00  0.00000000E+00  0.00000000E+00
  0.00000000E+00  0.00000000E+00  0.00000000E+00
  0.00000000E+00  0.00000000E+00  0.00000000E+00
  0.00000000E+00  0.00000000E+00  0.00000000E+00
  0.00000000E+00  0.00000000E+00  0.00000000E+00
