Generated by VASPKIT code               
   1.00000000000000     
     6.1840000152999997    0.0000000000000000    0.0000000000000000
     0.0000000000000000    7.1406998634000001    0.0000000000000000
     0.0000000000000000    0.0000000000000000   25.2031993866000015
   Hf   O    H 
    16    36     8
Selective dynamics
Direct
  0.0203599999999966  0.0305400000000020  0.1445799999999977   F   F   F
  0.0203599999999966  0.5305400000000020  0.1445799999999977   F   F   F
  0.1957006185900667  0.7813451992570108  0.2593078946437473   T   T   T
  0.1957892936878878  0.2795197515827113  0.2592693118912948   T   T   T
  0.3536900000000003  0.5305299999999988  0.0289199999999994   F   F   F
  0.3624331011343429  0.5304130850256144  0.3815269503935923   T   T   T
  0.3536900000000003  0.0305299999999988  0.0289199999999994   F   F   F
  0.3638142915563733  0.0303353043297250  0.3860314958801183   T   T   T
  0.5203599999999966  0.2805400000000020  0.1445799999999977   F   F   F
  0.5203599999999966  0.7805400000000020  0.1445799999999977   F   F   F
  0.6889917347949748  0.0304012039180677  0.2619079894703518   T   T   T
  0.6922528288331691  0.5304525180105060  0.2615572949350451   T   T   T
  0.8536900000000003  0.7805400000000020  0.0289199999999994   F   F   F
  0.8803072082091532  0.7812633609100175  0.3759854682892083   T   T   T
  0.8536900000000003  0.2805299999999988  0.0289199999999994   F   F   F
  0.8804559287655778  0.2794614628311152  0.3759141016838328   T   T   T
  0.0059724457041028  0.5304674953288071  0.2293581884720197   T   T   T
  0.0047377619220299  0.0303758251162023  0.2292031842187896   T   T   T
  0.0203599999999966  0.5305400000000020  0.0578300000000027   F   F   F
  0.0172221678612772  0.5303607883682560  0.3911374690546552   T   T   T
  0.0203599999999966  0.0305400000000020  0.0578300000000027   F   F   F
  0.0157957092886321  0.0303099788854055  0.3939747079551239   T   T   T
  0.1870300000000000  0.2805299999999988  0.1734999999999971   F   F   F
  0.1870300000000000  0.7805400000000020  0.1734999999999971   F   F   F
  0.1870300000000000  0.2805299999999988  0.0000000000000000   F   F   F
  0.2511508910367013  0.2763567237266074  0.3550441917668081   T   T   T
  0.1870300000000000  0.7805400000000020  0.0000000000000000   F   F   F
  0.2509954297206676  0.7843492044251832  0.3549790588380404   T   T   T
  0.3536900000000003  0.0305400000000020  0.1156700000000015   F   F   F
  0.3536900000000003  0.5305299999999988  0.1156700000000015   F   F   F
  0.3394087710062550  0.0304630936888870  0.2819199727053672   T   T   T
  0.3322183346588190  0.5303929105499492  0.2859824364702988   T   T   T
  0.5203599999999966  0.7805400000000020  0.0578300000000027   F   F   F
  0.5838496062153453  0.7810187213963857  0.4202338873936853   T   T   T
  0.5203599999999966  0.2805400000000020  0.0578300000000027   F   F   F
  0.5844906362104965  0.2790018527147637  0.4202956407203544   T   T   T
  0.5428571073717663  0.7778257649789850  0.2346023557424530   T   T   T
  0.5428901298791970  0.2830580298283252  0.2345938127430927   T   T   T
  0.6870300000000000  0.5305299999999988  0.0000000000000000   F   F   F
  0.6606817850474584  0.5300867306154089  0.3451827537952781   T   T   T
  0.6870300000000000  0.0305400000000020  0.0000000000000000   F   F   F
  0.6573113486137316  0.0301679589219859  0.3458268149799366   T   T   T
  0.6870300000000000  0.5305299999999988  0.1734999999999971   F   F   F
  0.6870300000000000  0.0305400000000020  0.1734999999999971   F   F   F
  0.8871125461598552  0.2784754875806144  0.2950896607587765   T   T   T
  0.8870003256056478  0.7821552257549271  0.2951296113059456   T   T   T
  0.8536900000000003  0.2805299999999988  0.1156700000000015   F   F   F
  0.8536900000000003  0.7805400000000020  0.1156700000000015   F   F   F
  0.9714761249056423  0.7759175610798366  0.4719919921158962   T   T   T
  0.9711608963189349  0.2845664113443362  0.4720069393600923   T   T   T
  0.2964290497460311  0.0302524301987717  0.4682140182180419   T   T   T
  0.2949910701532446  0.5297576401470252  0.4650050277204087   T   T   T
  0.6150419550215886  0.2832392064131213  0.4581326629681826   T   T   T
  0.0793636900064811  0.3889886941657963  0.4744972992066678   T   T   T
  0.0790201432088580  0.6711667900015357  0.4746688393364806   T   T   T
  0.0713145002228828  0.8845724581047847  0.4762755307346751   T   T   T
  0.6116476949745007  0.7760334622403704  0.4581791341368060   T   T   T
  0.0705707390696659  0.1755725650870374  0.4762566543321682   T   T   T
  0.4068213042151925  0.0309706982719433  0.4955415476570693   T   T   T
  0.4058868457513825  0.5271703491637325  0.4922039534717442   T   T   T
 
  0.00000000E+00  0.00000000E+00  0.00000000E+00
  0.00000000E+00  0.00000000E+00  0.00000000E+00
  0.00000000E+00  0.00000000E+00  0.00000000E+00
  0.00000000E+00  0.00000000E+00  0.00000000E+00
  0.00000000E+00  0.00000000E+00  0.00000000E+00
  0.00000000E+00  0.00000000E+00  0.00000000E+00
  0.00000000E+00  0.00000000E+00  0.00000000E+00
  0.00000000E+00  0.00000000E+00  0.00000000E+00
  0.00000000E+00  0.00000000E+00  0.00000000E+00
  0.00000000E+00  0.00000000E+00  0.00000000E+00
  0.00000000E+00  0.00000000E+00  0.00000000E+00
  0.00000000E+00  0.00000000E+00  0.00000000E+00
  0.00000000E+00  0.00000000E+00  0.00000000E+00
  0.00000000E+00  0.00000000E+00  0.00000000E+00
  0.00000000E+00  0.00000000E+00  0.00000000E+00
  0.00000000E+00  0.00000000E+00  0.00000000E+00
  0.00000000E+00  0.00000000E+00  0.00000000E+00
  0.00000000E+00  0.00000000E+00  0.00000000E+00
  0.00000000E+00  0.00000000E+00  0.00000000E+00
  0.00000000E+00  0.00000000E+00  0.00000000E+00
  0.00000000E+00  0.00000000E+00  0.00000000E+00
  0.00000000E+00  0.00000000E+00  0.00000000E+00
  0.00000000E+00  0.00000000E+00  0.00000000E+00
  0.00000000E+00  0.00000000E+00  0.00000000E+00
  0.00000000E+00  0.00000000E+00  0.00000000E+00
  0.00000000E+00  0.00000000E+00  0.00000000E+00
  0.00000000E+00  0.00000000E+00  0.00000000E+00
  0.00000000E+00  0.00000000E+00  0.00000000E+00
  0.00000000E+00  0.00000000E+00  0.00000000E+00
  0.00000000E+00  0.00000000E+00  0.00000000E+00
  0.00000000E+00  0.00000000E+00  0.00000000E+00
  0.00000000E+00  0.00000000E+00  0.00000000E+00
  0.00000000E+00  0.00000000E+00  0.00000000E+00
  0.00000000E+00  0.00000000E+00  0.00000000E+00
  0.00000000E+00  0.00000000E+00  0.00000000E+00
  0.00000000E+00  0.00000000E+00  0.00000000E+00
  0.00000000E+00  0.00000000E+00  0.00000000E+00
  0.00000000E+00  0.00000000E+00  0.00000000E+00
  0.00000000E+00  0.00000000E+00  0.00000000E+00
  0.00000000E+00  0.00000000E+00  0.00000000E+00
  0.00000000E+00  0.00000000E+00  0.00000000E+00
  0.00000000E+00  0.00000000E+00  0.00000000E+00
  0.00000000E+00  0.00000000E+00  0.00000000E+00
  0.00000000E+00  0.00000000E+00  0.00000000E+00
  0.00000000E+00  0.00000000E+00  0.00000000E+00
  0.00000000E+00  0.00000000E+00  0.00000000E+00
  0.00000000E+00  0.00000000E+00  0.00000000E+00
  0.00000000E+00  0.00000000E+00  0.00000000E+00
  0.00000000E+00  0.00000000E+00  0.00000000E+00
  0.00000000E+00  0.00000000E+00  0.00000000E+00
  0.00000000E+00  0.00000000E+00  0.00000000E+00
  0.00000000E+00  0.00000000E+00  0.00000000E+00
  0.00000000E+00  0.00000000E+00  0.00000000E+00
  0.00000000E+00  0.00000000E+00  0.00000000E+00
  0.00000000E+00  0.00000000E+00  0.00000000E+00
  0.00000000E+00  0.00000000E+00  0.00000000E+00
  0.00000000E+00  0.00000000E+00  0.00000000E+00
  0.00000000E+00  0.00000000E+00  0.00000000E+00
  0.00000000E+00  0.00000000E+00  0.00000000E+00
  0.00000000E+00  0.00000000E+00  0.00000000E+00
