pymatgen v2020.8.3 with grid density = 1495 / number of atoms
0
Monkhorst
4 4 4
0 0 0

