Generated by VASPKIT code               
   1.00000000000000     
     7.1406998634000001    0.0000000000000000    0.0000000000000000
     0.0000000000000000    6.1841001511000000    0.0000000000000000
     0.0000000000000000    0.0000000000000000   20.8304004668999987
   Hf   O 
     8    16
Selective dynamics
Direct
  0.7508017317988006  0.1668965316659204  0.0654911423187600   T   T   T
  0.2508017317988006  0.1668965316659204  0.0654911423187600   T   T   T
  0.5008017317988006  0.3337034683340853  0.2020388576812407   T   T   T
  0.0008017317988005  0.3337034683340853  0.2020388576812407   T   T   T
  0.0008017317988005  0.6668965316659204  0.0654911423187600   T   T   T
  0.5008017317988006  0.6668965316659204  0.0654911423187600   T   T   T
  0.7508017317988006  0.8337034683340853  0.2020388576812407   T   T   T
  0.2508017317988006  0.8337034683340853  0.2020388576812407   T   T   T
  0.5008048016286929  0.0003246322238727  0.2400437417279040   T   T   T
  0.0008048016286928  0.0002753677761330  0.0274862582720896   T   T   T
  0.0008048016286928  0.0003246322238727  0.2400437417279040   T   T   T
  0.5008048016286929  0.0002753677761330  0.0274862582720896   T   T   T
  0.7508034665725041  0.1669716558507454  0.1663391298493261   T   T   T
  0.2508034665725042  0.1669716558507454  0.1663391298493261   T   T   T
  0.0008034665725042  0.3336283441492603  0.1011908701506747   T   T   T
  0.5008034665725041  0.3336283441492603  0.1011908701506747   T   T   T
  0.7508048016286929  0.5003246322238728  0.2400437417279040   T   T   T
  0.2508048016286928  0.5002753677761329  0.0274862582720896   T   T   T
  0.2508048016286928  0.5003246322238728  0.2400437417279040   T   T   T
  0.7508048016286929  0.5002753677761329  0.0274862582720896   T   T   T
  0.0008034665725042  0.6669716558507452  0.1663391298493261   T   T   T
  0.5008034665725041  0.6669716558507452  0.1663391298493261   T   T   T
  0.2508034665725042  0.8336283441492605  0.1011908701506747   T   T   T
  0.7508034665725041  0.8336283441492605  0.1011908701506747   T   T   T
 
  0.00000000E+00  0.00000000E+00  0.00000000E+00
  0.00000000E+00  0.00000000E+00  0.00000000E+00
  0.00000000E+00  0.00000000E+00  0.00000000E+00
  0.00000000E+00  0.00000000E+00  0.00000000E+00
  0.00000000E+00  0.00000000E+00  0.00000000E+00
  0.00000000E+00  0.00000000E+00  0.00000000E+00
  0.00000000E+00  0.00000000E+00  0.00000000E+00
  0.00000000E+00  0.00000000E+00  0.00000000E+00
  0.00000000E+00  0.00000000E+00  0.00000000E+00
  0.00000000E+00  0.00000000E+00  0.00000000E+00
  0.00000000E+00  0.00000000E+00  0.00000000E+00
  0.00000000E+00  0.00000000E+00  0.00000000E+00
  0.00000000E+00  0.00000000E+00  0.00000000E+00
  0.00000000E+00  0.00000000E+00  0.00000000E+00
  0.00000000E+00  0.00000000E+00  0.00000000E+00
  0.00000000E+00  0.00000000E+00  0.00000000E+00
  0.00000000E+00  0.00000000E+00  0.00000000E+00
  0.00000000E+00  0.00000000E+00  0.00000000E+00
  0.00000000E+00  0.00000000E+00  0.00000000E+00
  0.00000000E+00  0.00000000E+00  0.00000000E+00
  0.00000000E+00  0.00000000E+00  0.00000000E+00
  0.00000000E+00  0.00000000E+00  0.00000000E+00
  0.00000000E+00  0.00000000E+00  0.00000000E+00
  0.00000000E+00  0.00000000E+00  0.00000000E+00
