Generated by VASPKIT code
 1.000000
    7.1406998634000001    0.0000000000000000    0.0000000000000000
    0.0000000000000000    6.1841001511000000    0.0000000000000000
    0.0000000000000000    0.0000000000000000   20.8304004668999987
   Hf   O 
     8    16
Selective Dynamics
Direct
    0.7508000000000000    0.1669600000000000    0.0637900000000000    T  T  T    Hf001
    0.2508000000000000    0.1669600000000000    0.0637900000000000    T  T  T    Hf002
    0.5008000000000000    0.3336400000000000    0.2037400000000000    T  T  T    Hf003
    0.0008000000000000    0.3336400000000000    0.2037400000000000    T  T  T    Hf004
    0.0008000000000000    0.6669600000000000    0.0637900000000000    T  T  T    Hf005
    0.5008000000000000    0.6669600000000000    0.0637900000000000    T  T  T    Hf006
    0.7508000000000000    0.8336400000000000    0.2037400000000000    T  T  T    Hf007
    0.2508000000000000    0.8336400000000000    0.2037400000000000    T  T  T    Hf008
    0.5008100000000000    0.0003000000000000    0.2387300000000000    T  T  T     O001
    0.0008100000000000    0.0003000000000000    0.0288000000000000    T  T  T     O002
    0.0008100000000000    0.0003000000000000    0.2387300000000000    T  T  T     O003
    0.5008100000000000    0.0003000000000000    0.0288000000000000    T  T  T     O004
    0.7508000000000000    0.1669600000000000    0.1687500000000000    T  T  T     O005
    0.2508000000000000    0.1669600000000000    0.1687500000000000    T  T  T     O006
    0.0008000000000000    0.3336400000000000    0.0987800000000000    T  T  T     O007
    0.5008000000000000    0.3336400000000000    0.0987800000000000    T  T  T     O008
    0.7508100000000000    0.5003000000000000    0.2387300000000000    T  T  T     O009
    0.2508100000000000    0.5003000000000000    0.0288000000000000    T  T  T     O010
    0.2508100000000000    0.5003000000000000    0.2387300000000000    T  T  T     O011
    0.7508100000000000    0.5003000000000000    0.0288000000000000    T  T  T     O012
    0.0008000000000000    0.6669600000000000    0.1687500000000000    T  T  T     O013
    0.5008000000000000    0.6669600000000000    0.1687500000000000    T  T  T     O014
    0.2508000000000000    0.8336400000000000    0.0987800000000000    T  T  T     O015
    0.7508000000000000    0.8336400000000000    0.0987800000000000    T  T  T     O016
